C H N O                                 
   1.00000000000000     
    17.0814999999999984    0.0000000000000000    0.0000000000000000
     0.0000000000000000   21.3509999999999991    0.0000000000000000
     0.0000000000000000    0.0000000000000000   19.7240000000000002
   C    H    N    O 
     5     9     2     3
Selective dynamics
Direct
  0.4884062658619044  0.7228320093273197  0.4487834337804699   T   T   T
  0.4043761759709597  0.7422631281002552  0.4582855158543282   T   T   T
  0.5409463155369991  0.7394537206220022  0.5109734465199978   F   F   F
  0.3685403433742422  0.7030301604061719  0.5112599632632140   T   T   T
  0.6194222674368959  0.7051113602504202  0.5004457223726391   T   T   T
  0.5118539515650156  0.7500750195855161  0.4080498396668659   T   T   T
  0.3721579313870365  0.7386254556188234  0.4091216366600605   T   T   T
  0.5477098707859227  0.7883528502963557  0.5175163254209423   T   T   T
  0.5148594167426808  0.7205668269517957  0.5596640657355181   T   T   T
  0.4046085167244016  0.8148266496168475  0.5294346489019688   T   T   T
  0.3362810535524119  0.8224581491005054  0.4712733220498748   T   T   T
  0.6697933484453245  0.7849930789115263  0.5492085889181908   T   T   T
  0.7350233666416059  0.7238464464827175  0.5323988040328729   T   T   T
  0.3244508049337043  0.6226771881137054  0.5284968092722551   T   T   T
  0.3929504097953753  0.8100995976882999  0.4800047729193579   T   T   T
  0.6787658526865101  0.7402768663630752  0.5316353250389767   T   T   T
  0.3452767271250607  0.6435977051597845  0.4886964083262200   T   T   T
  0.3572448924248661  0.7134331152121050  0.5724479188670841   T   T   T
  0.6309459233746537  0.6568932901893163  0.4690738470137106   T   T   T
 
  0.00000000E+00  0.00000000E+00  0.00000000E+00
  0.00000000E+00  0.00000000E+00  0.00000000E+00
  0.00000000E+00  0.00000000E+00  0.00000000E+00
  0.00000000E+00  0.00000000E+00  0.00000000E+00
  0.00000000E+00  0.00000000E+00  0.00000000E+00
  0.00000000E+00  0.00000000E+00  0.00000000E+00
  0.00000000E+00  0.00000000E+00  0.00000000E+00
  0.00000000E+00  0.00000000E+00  0.00000000E+00
  0.00000000E+00  0.00000000E+00  0.00000000E+00
  0.00000000E+00  0.00000000E+00  0.00000000E+00
  0.00000000E+00  0.00000000E+00  0.00000000E+00
  0.00000000E+00  0.00000000E+00  0.00000000E+00
  0.00000000E+00  0.00000000E+00  0.00000000E+00
  0.00000000E+00  0.00000000E+00  0.00000000E+00
  0.00000000E+00  0.00000000E+00  0.00000000E+00
  0.00000000E+00  0.00000000E+00  0.00000000E+00
  0.00000000E+00  0.00000000E+00  0.00000000E+00
  0.00000000E+00  0.00000000E+00  0.00000000E+00
  0.00000000E+00  0.00000000E+00  0.00000000E+00
