C H N O                                 
   1.00000000000000     
    17.0814999999999984    0.0000000000000000    0.0000000000000000
     0.0000000000000000   21.3509999999999991    0.0000000000000000
     0.0000000000000000    0.0000000000000000   19.7240000000000002
   C    H    N    O 
   133    41     1    68
Selective dynamics
Direct
  0.0359713551362546  0.4629361085421309  0.0629596307803055   T   T   T
  0.0359750632096834  0.4629374419243533  0.5629576564329142   T   T   T
  0.5359751055947370  0.4629372591027021  0.0629604016362606   T   T   T
  0.5359678841479081  0.4629357711522673  0.5629593418480923   T   T   T
  0.0458492133876334  0.4632271520495195  0.3129407967558109   T   T   T
  0.0458502023190377  0.4632256392342455  0.8129437174376264   T   T   T
  0.5458485006954774  0.4632273499129269  0.3129414537493318   T   T   T
  0.5458492460856590  0.4632253291248674  0.8129434531568265   T   T   T
  0.0358071740880206  0.4806902657664551  0.1885022769746456   T   T   T
  0.0358074189763897  0.4806886040247420  0.6885024196031040   T   T   T
  0.5358064804958005  0.4806914209921942  0.1885025414467236   T   T   T
  0.5358041534825233  0.4806899966318952  0.6885000712819149   T   T   T
  0.0366291230600808  0.4808493264735247  0.4384034983360436   T   T   T
  0.0366307807057140  0.4808483494130726  0.9384033557441569   T   T   T
  0.5366283512557999  0.4808490826426208  0.4384041276702888   T   T   T
  0.5366307612721783  0.4808482490724941  0.9384031578455136   T   T   T
  0.2860289858030711  0.4811185799644235  0.0633899197301417   T   T   T
  0.2860288276936132  0.4811183905628624  0.5633896851835019   T   T   T
  0.7860302792971510  0.4811190064178845  0.0633902361236025   T   T   T
  0.7860326108171378  0.4811186951299433  0.5633897176942000   T   T   T
  0.2856689365303566  0.4723492809288459  0.3133015585190648   T   T   T
  0.2856684258434612  0.4723491846426811  0.8133012362720038   T   T   T
  0.7856713208711170  0.4723509516252804  0.3133029910891736   T   T   T
  0.7856681670060439  0.4723485851561762  0.8132995982343303   T   T   T
  0.2861089952829019  0.4717504516147670  0.1881171946046010   T   T   T
  0.2861084213645171  0.4717459543007507  0.6881165620322278   T   T   T
  0.7861085035801949  0.4717504670156174  0.1881179727164195   T   T   T
  0.7861109010640845  0.4717479737833372  0.6881156423238011   T   T   T
  0.2957591654323579  0.4719163534462254  0.4376329216191337   T   T   T
  0.2957582261202987  0.4719155696509247  0.9376338133216464   T   T   T
  0.7957602968098740  0.4719186281246692  0.4376269961031625   T   T   T
  0.7957602666175632  0.4719165801915111  0.9376341704595745   T   T   T
  0.1198730141320681  0.4715487310889230  0.0630502396308401   T   T   T
  0.1198731423957113  0.4715529267011860  0.5630500441591479   T   T   T
  0.6198680170260147  0.4715628314620375  0.0630451776662753   T   T   T
  0.6198668470675983  0.4715591828416947  0.5630445382619413   T   T   T
  0.1303329879399655  0.4719338097380472  0.3134346727130648   T   T   T
  0.1303339527470442  0.4719334185543147  0.8134356291746272   T   T   T
  0.6303313771021806  0.4719344214945735  0.3134338987144787   T   T   T
  0.6303331447940934  0.4719332960687908  0.8134369659263214   F   F   F
  0.1193419952715900  0.4721372355142464  0.1870946609581381   T   T   T
  0.1193443405007173  0.4721351756724772  0.6870925238346146   T   T   T
  0.6193410506980399  0.4721377775798388  0.1870946452736604   T   T   T
  0.6193394402766117  0.4721372311748055  0.6870962941534131   T   T   T
  0.1288177014537126  0.4720647180190198  0.4373485373077415   T   T   T
  0.1288165976425333  0.4720652049750171  0.9373495475438602   T   T   T
  0.6288152340801716  0.4720658213336293  0.4373455762517366   T   T   T
  0.6288162208338335  0.4720653943769690  0.9373510530080864   T   T   T
  0.3699905316763719  0.4716427266004715  0.0621690073122210   T   T   T
  0.3699928234819154  0.4716345094250443  0.5621658015240669   T   T   T
  0.8699909922286153  0.4716423546565096  0.0621689992034220   T   T   T
  0.8699913952805574  0.4716448605221402  0.5621677864001597   T   T   T
  0.3696539147041378  0.4631854811747900  0.3119422094331341   T   T   T
  0.3696532949616866  0.4631850563609916  0.8119434161060397   T   T   T
  0.8696547736973841  0.4631850999018710  0.3119417233655568   T   T   T
  0.8696536811670725  0.4631846812197011  0.8119437280392745   T   T   T
  0.3700120757573870  0.4715700389007722  0.1879743410900190   T   T   T
  0.3700107143642128  0.4715694264867238  0.6879753748384161   T   T   T
  0.8700105208980418  0.4715709484431230  0.1879739635227793   T   T   T
  0.8700128905569002  0.4715703770194679  0.6879730132235835   T   T   T
  0.3805810311748985  0.4727999424689386  0.4382220043564899   T   T   T
  0.3805801078811584  0.4727990847973516  0.9382209125665142   T   T   T
  0.8805825877510784  0.4727998714996033  0.4382207907115330   T   T   T
  0.8805795153906928  0.4727990449488431  0.9382209338547511   T   T   T
  0.1656398021869947  0.4912919626044783  0.1254728059940575   T   T   T
  0.1656415476136956  0.4912972522243777  0.6254711202011478   T   T   T
  0.6656402944619018  0.4912972866978009  0.1254729814701321   T   T   T
  0.6656558188062647  0.4912706732410186  0.6254732450862974   T   T   T
  0.1669774650527955  0.4994264703337024  0.3754049315011869   T   T   T
  0.1669762582797887  0.4994273868426760  0.8754086615898871   T   T   T
  0.6669769821387064  0.4994239601637815  0.3753998357079453   T   T   T
  0.6669755711023129  0.4994266802485399  0.8754094641727477   T   T   T
  0.1666480044081524  0.4725799698454978  0.2495110134586866   T   T   T
  0.1666480483526485  0.4725797094292687  0.7495110590523666   T   T   T
  0.6666489738058630  0.4725808113342111  0.2495103468981625   T   T   T
  0.6666475867113775  0.4725796512753107  0.7495118739016675   T   T   T
  0.1670524223349261  0.4726894440247378  0.0007538918107812   T   T   T
  0.1670528465956451  0.4726896064031152  0.5007537178905821   T   T   T
  0.6670526098659622  0.4726901963762771  0.0007523120512545   T   T   T
  0.6670486106285907  0.4726930253956425  0.5007523628439188   T   T   T
  0.4160386336142849  0.4716861040591311  0.1248514393595102   T   T   T
  0.4160220623244157  0.4716700520111559  0.6248606293572507   T   T   T
  0.9160383907890406  0.4716844073132407  0.1248524398400974   T   T   T
  0.9160343866017513  0.4716762316696546  0.6248611049825357   T   T   T
  0.4171134417263360  0.4719494525411250  0.3742537555893506   T   T   T
  0.4171135208303696  0.4719480744495286  0.8742531004969578   T   T   T
  0.9171148027754654  0.4719480314369235  0.3742526902891967   T   T   T
  0.9171142067307159  0.4719476264123799  0.8742537325853732   T   T   T
  0.4155653355882407  0.4900928265490165  0.2506149284143859   T   T   T
  0.4155605744857169  0.4900913288077433  0.7506140964797368   T   T   T
  0.9155676445374112  0.4900926879336467  0.2506147241674554   T   T   T
  0.9155665029244915  0.4900886801083928  0.7506156267868107   T   T   T
  0.4163223324752394  0.4993173214237174  0.0009083586191636   T   T   T
  0.4163215044296678  0.4993190476706530  0.5009085978499428   T   T   T
  0.9163220744207052  0.4993205441965074  0.0009096528287600   T   T   T
  0.9163235467178552  0.4993107914069483  0.5009072370800567   T   T   T
  0.9991700034330080  0.4905750677569998  0.1245493501122183   T   T   T
  0.9991522246971414  0.4905530223004320  0.6245511348530144   T   T   T
  0.4991810761742457  0.4905826012715551  0.1245496434376321   T   T   T
  0.4991161215204230  0.4905387656366287  0.6245459300526832   T   T   T
  0.0000048204839942  0.4912417060790517  0.3741627419485383   T   T   T
  0.0000046326956422  0.4912394417422377  0.8741649705756487   T   T   T
  0.5000117843715799  0.4912456369869389  0.3741623874522233   T   T   T
  0.5000040151764438  0.4912399153096416  0.8741649797753297   T   T   T
  0.9999682380236123  0.4721395911194719  0.2494199539205582   T   T   T
  0.9999687673297544  0.4721406713013678  0.7494204983904851   T   T   T
  0.4999682536233294  0.4721402838876969  0.2494198822838953   T   T   T
  0.4999688077000712  0.4721413304533257  0.7494209795046345   T   T   T
  0.9997445654528860  0.4811195439228584  0.9993899644370003   T   T   T
  0.9997457616329086  0.4811202541497295  0.4993907738792274   T   T   T
  0.4997450164781583  0.4811207764045733  0.9993903008352376   T   T   T
  0.4997442373742942  0.4811203143436984  0.4993899645792155   T   T   T
  0.2495942780486970  0.4808398738123145  0.1242891488757039   T   T   T
  0.2495946287252480  0.4808394311644406  0.6242885071636550   T   T   T
  0.7495936016972919  0.4808410492662532  0.1242893365545896   T   T   T
  0.7495961863508569  0.4808386609685869  0.6242892128923998   T   T   T
  0.2504325823729019  0.4807951260888359  0.3744712989013692   T   T   T
  0.2504334990280839  0.4807965237841287  0.8744705836523607   T   T   T
  0.7504298323929746  0.4807952577291701  0.3744711167793753   T   T   T
  0.7504335821271439  0.4807972401110234  0.8744689671841570   T   T   T
  0.2498681473436690  0.4985450828441600  0.2504151734145736   T   T   T
  0.2498665485559783  0.4985417512356349  0.7504111643583755   T   T   T
  0.7498670009454997  0.4985470653128488  0.2504174835332904   T   T   T
  0.7498613070320843  0.4985296726614266  0.7504042197453984   T   T   T
  0.2497692449397988  0.4993419548340441  0.9996503241844010   T   T   T
  0.2497686459100450  0.4993427846529102  0.4996483005357462   T   T   T
  0.7497720860646453  0.4993402999349996  0.9996514167753503   T   T   T
  0.7497617217524066  0.4993191882348427  0.4996693448554055   T   T   T
  0.5349293772460015  0.8143467383249998  0.5543347045179985   F   F   F
  0.6190610608081712  0.8317880056613234  0.5318287298293853   T   T   T
  0.4881044370124883  0.7867712325001577  0.4917867902569526   T   T   T
  0.6662699671802699  0.7691600060802131  0.5114250867664794   T   T   T
  0.4037027971532510  0.7869411213078621  0.5098172673079375   T   T   T
  0.3064485968518866  0.5739665676916985  0.4901976543740858   T   T   T
  0.3063331803940414  0.5739605636146123  0.9902160367150046   T   T   T
  0.8064018074677648  0.5741314415143322  0.4905696140480131   T   T   T
  0.8065093583346794  0.5740206291084959  0.9901488862094183   T   T   T
  0.1985070751928077  0.5809289085452818  0.4036168444732411   T   T   T
  0.1985035455455062  0.5809237304305839  0.9036083058419067   T   T   T
  0.6985035392069179  0.5809344339650835  0.4035997571468783   T   T   T
  0.6985026598069481  0.5809226886523575  0.9036085671107728   T   T   T
  0.2107918393784658  0.5736577959226636  0.1572985529242530   T   T   T
  0.2107914769654258  0.5736534825674511  0.6572990440834445   T   T   T
  0.7107875079028219  0.5736649211587519  0.1573034776825537   T   T   T
  0.7108007349059378  0.5735557030159555  0.6571545976140669   T   T   T
  0.4374447710595106  0.5716471417023641  0.2889440489682826   T   T   T
  0.4374458251593225  0.5716383027739766  0.7889458818060078   T   T   T
  0.9374456132008362  0.5716426986617762  0.2889442742757140   T   T   T
  0.9374481725635846  0.5716358799047541  0.7889477723899887   T   T   T
  0.4390313950489499  0.5739598328530704  0.0510897894272233   T   T   T
  0.4390520561901639  0.5739659732056879  0.5510631155013073   T   T   T
  0.9390338816343160  0.5739600596520162  0.0510875171625500   T   T   T
  0.9390446613032069  0.5739654499097355  0.5510715219809583   T   T   T
  0.3188750726770309  0.5712184722354294  0.2481180873908784   T   T   T
  0.3188692111903464  0.5711722570673956  0.7480994244399568   T   T   T
  0.8188727748234754  0.5711624421104560  0.2481008861451812   T   T   T
  0.8188745684523724  0.5712059142747208  0.7481083976992835   T   T   T
  0.0566569969084156  0.5732947131413511  0.3646994838720445   T   T   T
  0.0566479469596359  0.5732815945872929  0.8648190992787477   T   T   T
  0.5565267732750314  0.5733564299527671  0.3646844145923396   T   T   T
  0.5566134469314221  0.5733213620539246  0.8648389910517764   T   T   T
  0.0563188409777879  0.5694775118933890  0.1221749486509722   T   T   T
  0.0558912737213006  0.5690611857703516  0.6231040688959411   T   T   T
  0.5567294744798801  0.5697869477044861  0.1219530886505140   T   T   T
  0.5563146134683592  0.5678949818815866  0.6229409781183008   T   T   T
  0.5031565790864221  0.8570943584591291  0.5701698847470240   T   T   T
  0.5355083286183557  0.7858143888059530  0.6011273025819435   T   T   T
  0.6427803718781959  0.8426920671477021  0.5815959424672954   T   T   T
  0.4970724744362798  0.8175583880097648  0.4504769001361097   T   T   T
  0.5104440923425031  0.7407734954800986  0.4802048192812052   T   T   T
  0.6756413024874419  0.8674513205772740  0.4506357829788499   T   T   T
  0.6307899722422547  0.9238460573480083  0.5002586862362932   T   T   T
  0.6880534958075017  0.6857132595532107  0.5418812521312901   T   T   T
  0.3007850584045499  0.7567278400351043  0.4849610478126181   T   T   T
  0.6304254730283958  0.8790215613902674  0.4798781001172259   T   T   T
  0.2499746504446989  0.5652915277692188  0.4898097976062132   T   T   T
  0.2499501941705731  0.5652873841540540  0.9898073800848337   T   T   T
  0.7500433462698481  0.5653181318442719  0.4898228329337329   T   T   T
  0.7500003161752744  0.5652966108006154  0.9898032172609632   T   T   T
  0.1665912548520296  0.5653190985955661  0.3650794841145455   T   T   T
  0.1665901023554426  0.5653178612835390  0.8650772572463055   T   T   T
  0.6665916587940401  0.5653185631644178  0.3650794135121416   T   T   T
  0.6665904080382958  0.5653175949656912  0.8650776527761863   T   T   T
  0.1666098022600124  0.5643266369865003  0.1254159402842987   T   T   T
  0.1665996710254731  0.5643262002033893  0.6254172537919729   T   T   T
  0.6666227052331450  0.5643266880440621  0.1254147846326177   T   T   T
  0.6666424082220601  0.5643404556673701  0.6253986490146488   T   T   T
  0.4048973428367688  0.5560951143419786  0.2504170194044093   T   T   T
  0.4048986782597694  0.5560954278597450  0.7504169235294995   T   T   T
  0.9048984589964775  0.5560954233431801  0.2504172724028422   T   T   T
  0.9048961709325454  0.5560958955262478  0.7504160860551110   T   T   T
  0.4048167963488964  0.5652975221538554  0.0106869412249324   T   T   T
  0.4048195885003381  0.5652980823743619  0.5106925331092640   T   T   T
  0.9048156004242287  0.5652964617414611  0.0106900116520592   T   T   T
  0.9048184169222679  0.5653007434791277  0.5106920193452353   T   T   T
  0.2616934032499358  0.5652658658658893  0.2497123059375781   T   T   T
  0.2616838701126980  0.5652654410776634  0.7497116241791417   T   T   T
  0.7616826355497324  0.5652645666917451  0.2497106470620594   T   T   T
  0.7616991602164092  0.5652657669228063  0.7497110291042688   T   T   T
  0.9999919757159290  0.5642688161778651  0.3645189189257252   T   T   T
  0.0000007945832934  0.5642719461695691  0.8645043105179866   T   T   T
  0.4999803351675567  0.5642664651384024  0.3645269580556558   T   T   T
  0.4999885481330395  0.5642700233180378  0.8645058145597773   T   T   T
  0.0000895707716921  0.5562082877018995  0.1148177340588177   T   T   T
  0.0000547777961373  0.5562054085496086  0.6148102859249462   T   T   T
  0.5001132791796010  0.5562185883848585  0.1148168502467115   T   T   T
  0.5000803421566005  0.5561242020792889  0.6148143674031274   T   T   T
  0.3448888335297582  0.4162497527055535  0.4395775633852992   T   T   T
  0.3449020015130131  0.4162510736582945  0.9395789025520713   T   T   T
  0.8448832645896474  0.4162546086032393  0.4395840505827593   T   T   T
  0.8449191152259132  0.4162445723039951  0.9395758322709682   T   T   T
  0.3332573659502387  0.4119331622205067  0.1884024160182136   T   T   T
  0.3332632074976729  0.4119260549104382  0.6884025630978527   T   T   T
  0.8332613329817917  0.4119264806220002  0.1884036164699694   T   T   T
  0.8333074647607361  0.4119564355744956  0.6884032833411808   T   T   T
  0.1665740646556273  0.4160958233046159  0.4683161478952726   T   T   T
  0.1665751629789511  0.4160958316820214  0.9683157951438943   T   T   T
  0.6665749685745084  0.4160963855849644  0.4683164697599551   T   T   T
  0.6665747143762388  0.4160956062389403  0.9683156088980525   T   T   T
  0.0952494537181821  0.4118595020021445  0.3238193739910002   T   T   T
  0.0952296487320936  0.4118794087623883  0.8238189186081755   T   T   T
  0.5952274224027079  0.4118722423048311  0.3238136745492426   T   T   T
  0.5952271140383800  0.4118822281361645  0.8238293271791122   T   T   T
  0.0832755111387939  0.4078458579838724  0.0629944874983934   T   T   T
  0.0832752829835641  0.4078457713850057  0.5629952167917409   T   T   T
  0.5832830513962932  0.4078472607990449  0.0629927001231607   T   T   T
  0.5832731807358016  0.4078461074773685  0.5629967262498710   T   T   T
  0.4047335979396038  0.4120042036263669  0.0928615453710151   T   T   T
  0.4047875367441165  0.4120625380342560  0.5928956095824915   T   T   T
  0.9047160213914154  0.4120052077890506  0.0928646746593245   T   T   T
  0.9048072979820745  0.4120055289307629  0.5928997364494819   T   T   T
  0.4048341583017177  0.4118497854814080  0.3429093712196476   T   T   T
  0.4048399159093989  0.4118539306047495  0.8428988482123998   T   T   T
  0.9048418377692116  0.4118532331680171  0.3429145331658461   T   T   T
  0.9048437713818629  0.4118556524691428  0.8429062125987485   T   T   T
  0.1430708109040779  0.4160705282647683  0.2183826813733063   T   T   T
  0.1430712383758035  0.4160705443668391  0.7183826999188483   T   T   T
  0.6430709393096095  0.4160705968835359  0.2183823341113893   T   T   T
  0.6430660374953092  0.4160688402129793  0.7183792515607053   T   T   T
  0.6545953737329526  0.7217533407776244  0.5524579748635787   T   T   T
  0.3570722086167848  0.7495040652362874  0.4692086453882567   T   T   T
  0.7142299225605413  0.7680152447394804  0.4682871181311583   T   T   T
  0.3696411736204439  0.8238969236019784  0.5471890874553509   T   T   T
 
 


