C H O                                   
   1.00000000000000     
    17.0814999999999984    0.0000000000000000    0.0000000000000000
     0.0000000000000000   20.0000000000000000    0.0000000000000000
     0.0000000000000000    0.0000000000000000   19.7743000000000002
   C    H    O 
   128    25    38
Selective dynamics
Direct
  0.0957007339959546  0.4181712865904856  0.0404492699365946   T   T   T
  0.0959388637894492  0.4278689607977881  0.2858248288961320   T   T   T
  0.0958591829171169  0.4180997014915988  0.5405410941833821   T   T   T
  0.0958681486520518  0.4278714965649044  0.7858995744765522   T   T   T
  0.5955767890760910  0.4279974076243960  0.0406124765563121   T   T   T
  0.5958505877619800  0.4278595617536496  0.2859410110099034   T   T   T
  0.5961181461970213  0.4178180491073462  0.5406663323514636   T   T   T
  0.5957170286538300  0.4181718845223088  0.7857131674419193   T   T   T
  0.1056836585843612  0.4078384462788165  0.1633763864636606   T   T   T
  0.1064838885401613  0.4185570767457705  0.4081444904539424   T   T   T
  0.1062555463607993  0.4078497534937924  0.6632611964863031   T   T   T
  0.1060672819608826  0.4077342167122993  0.9082991422342772   T   T   T
  0.6046634563888276  0.4045046265379924  0.1632435479549059   T   T   T
  0.5996859342860148  0.4081948651701950  0.4116267113023468   T   T   T
  0.6056289351643045  0.3980536078518497  0.6633431262358016   T   T   T
  0.5955192545899664  0.4219764116714018  0.9114400053873268   T   T   T
  0.3512224863836977  0.4186065602367535  0.0364584394083067   T   T   T
  0.3457755585916473  0.4177947706730691  0.2859888776866271   T   T   T
  0.3460056751815799  0.4186946424564013  0.5407109091066786   T   T   T
  0.3564543738402506  0.4280304613423525  0.7858185380397700   T   T   T
  0.8511934779359152  0.4204984945101415  0.0357107640622729   T   T   T
  0.8457649413164461  0.4180590261163672  0.2856335875084213   T   T   T
  0.8563681143797268  0.4189229457636259  0.5404335426043758   T   T   T
  0.8457401417397179  0.4180914512213150  0.7858419316785259   T   T   T
  0.3462759930517123  0.4085892290712536  0.1634448357758629   T   T   T
  0.3521499761542373  0.4021240882445056  0.4113107786285326   T   T   T
  0.3561087163828489  0.4073861168746404  0.6631923357383585   T   T   T
  0.3461817824837610  0.4081953222269163  0.9086781902296366   T   T   T
  0.8547325847115843  0.4044464274841744  0.1632157577244513   T   T   T
  0.8456790242146042  0.4181147742835236  0.4085528555522941   T   T   T
  0.8559769724866371  0.3986055583954595  0.6632590541053531   T   T   T
  0.8459595757988723  0.4074594009646972  0.9085279144013114   T   T   T
  0.1790779571293442  0.4045891456587754  0.0372156714756358   T   T   T
  0.1789686993724828  0.4078828509450290  0.2856870947190302   T   T   T
  0.1793933270131802  0.4084278040290528  0.5407418183306518   T   T   T
  0.1791356469859195  0.4084636260752532  0.7857179202664923   T   T   T
  0.6793356922228426  0.4082172712037320  0.0395864648795126   T   T   T
  0.6790157337697167  0.4085402858471241  0.2857420283946794   T   T   T
  0.6801064670503152  0.4083517103886862  0.5406809030237909   T   T   T
  0.6792943724825449  0.4075115481846083  0.7856523987232151   T   T   T
  0.1898356446752558  0.4287444340858286  0.1630043499387313   T   T   T
  0.1852168434955530  0.4139760924666120  0.4110313803231875   T   T   T
  0.1897190579290822  0.4291668448417170  0.6629717536196367   T   T   T
  0.1900169265034535  0.4191269409156320  0.9088231775206594   T   T   T
  0.6897202893933994  0.4184466898730861  0.1635265361919167   T   T   T
  0.6897273345235888  0.4289614774738482  0.4094535082909232   T   T   T
  0.6901008242690949  0.4085375489245990  0.6631737339436725   T   T   T
  0.6794618074260583  0.4384584952976667  0.9082662777922508   T   T   T
  0.4365796375896949  0.4077935038093656  0.0374269699151171   T   T   T
  0.4296636104131792  0.4085060684070569  0.2857631799166782   T   T   T
  0.4301777373105011  0.4183485192354510  0.5408361198502547   T   T   T
  0.4398516448465557  0.4088388078182774  0.7856565222089529   T   T   T
  0.9397758922560300  0.4086418396372409  0.0310283924573937   T   T   T
  0.9296576056267298  0.4084136682598256  0.2856068736699982   T   T   T
  0.9403146544897965  0.4088591723823853  0.5403899031189496   T   T   T
  0.9301397124390149  0.4080723588413733  0.7856651138225601   T   T   T
  0.4292061449391369  0.4292922501485421  0.1632800303998465   T   T   T
  0.4348487636296383  0.4234250276109108  0.4163501625788442   T   T   T
  0.4392908401308091  0.4293446585434140  0.6632365734055412   T   T   T
  0.4297420867033708  0.4281727421753914  0.9083274472312155   T   T   T
  0.9391050584148104  0.4291561655344864  0.1628753428921286   T   T   T
  0.9289589176947928  0.4218916775647727  0.4115798235055337   T   T   T
  0.9345102460260577  0.4333240918053747  0.6625476821877427   T   T   T
  0.9291022300781719  0.4291677954305015  0.9083575872131746   T   T   T
  0.2258624058758940  0.3984273765905542  0.1016387558934539   T   T   T
  0.2261668402185535  0.4078613904899768  0.3471664246391626   T   T   T
  0.2265308321351327  0.4080184855711551  0.6016728718016466   T   T   T
  0.2262521723086266  0.4079019777763833  0.8468196311008782   T   T   T
  0.7263298031470242  0.4078336317417453  0.1017938700472882   T   T   T
  0.7261046032531766  0.4083479818172364  0.3470989447790558   T   T   T
  0.7259024502917839  0.4084834336342098  0.6018117028522454   T   T   T
  0.7253643667504264  0.4086840940178291  0.8471626881400027   T   T   T
  0.2262200776028749  0.4084646322493413  0.2246273332099804   T   T   T
  0.2257905226612991  0.4088282029015105  0.4792612275341668   T   T   T
  0.2273316073513882  0.4177934827002119  0.7248746928147440   T   T   T
  0.2257937605453861  0.4177055381370067  0.9696082178614205   T   T   T
  0.7261206108774303  0.4182106340704124  0.2243556715216357   T   T   T
  0.7263719883630557  0.4085883690569716  0.4794466143452425   T   T   T
  0.7265733072905576  0.4088104940243795  0.7244448945428132   T   T   T
  0.7250649031283984  0.4184163122871922  0.9704931653841271   T   T   T
  0.4760711355002272  0.4175644474495428  0.1018526718970350   T   T   T
  0.4760943199003123  0.4184885857107119  0.3485292241797140   T   T   T
  0.4765652440755517  0.4178892624823831  0.6009226218753057   T   T   T
  0.4763809521712972  0.4086335153754135  0.8469066175162254   T   T   T
  0.9764314677858010  0.4147063524919119  0.0982005883392176   T   T   T
  0.9758789905162359  0.4186233000881074  0.3473180921969146   T   T   T
  0.9766922564400815  0.4178393213007325  0.6016951550898284   T   T   T
  0.9759759208910594  0.4173312476121254  0.8470416218952437   T   T   T
  0.4763717209398663  0.4179014603373901  0.2244545717635020   T   T   T
  0.4757365445764350  0.4188084792958691  0.4794161901804088   T   T   T
  0.4771736117421952  0.4176436193300646  0.7247038088141053   T   T   T
  0.4763559998285487  0.3983303598934782  0.9693560589517674   T   T   T
  0.9769145922767350  0.4177154677758068  0.2245844995705397   T   T   T
  0.9753640196268876  0.4176888921141071  0.4697801225835860   T   T   T
  0.9766820566409606  0.4178912489577229  0.7244666513518112   T   T   T
  0.9761705936941780  0.4087287465542246  0.9694747765435565   T   T   T
  0.0592405693552180  0.4182105484391059  0.1017013995154414   T   T   T
  0.0599864133529522  0.4286954970401453  0.3469968900917735   T   T   T
  0.0594120671670453  0.4188630724441538  0.6018023737017870   T   T   T
  0.0597461334372156  0.4288466788427812  0.8468941814984774   T   T   T
  0.5598095661170817  0.4280221653197316  0.1019322878547797   T   T   T
  0.5594982440670364  0.4290023157743192  0.3469881097031191   T   T   T
  0.5591374964277520  0.4178605601165657  0.6019758023385222   T   T   T
  0.5586579400292564  0.4177543411533406  0.8471484635421263   T   T   T
  0.0586959378852612  0.4192150369817540  0.2245856961963497   T   T   T
  0.0596657399622913  0.4294830726994050  0.4696492325843096   T   T   T
  0.0586522087424157  0.4191174179843244  0.7245031245851621   T   T   T
  0.0598917717560425  0.4293636380136547  0.9696501645057367   T   T   T
  0.5585972809943982  0.4189498549712667  0.2244393808442879   T   T   T
  0.5589999494379114  0.4187771840305530  0.4793949160009490   T   T   T
  0.5593480454076172  0.4182404876667007  0.7244973646575659   T   T   T
  0.5594204084823673  0.4217385621454852  0.9727471368716252   T   T   T
  0.3092113798562792  0.4180346058708295  0.1015781886182481   T   T   T
  0.3096447225961185  0.4181023369211871  0.3469022649297102   T   T   T
  0.3089340356134471  0.4178524520013127  0.6018719377505306   T   T   T
  0.3095441434233877  0.4190582179145608  0.8467952263980294   T   T   T
  0.8100801614032278  0.4195052910056916  0.1015009334907475   T   T   T
  0.8092825580752887  0.4184754184496953  0.3470055600601114   T   T   T
  0.8098995323145530  0.4189849590663925  0.6018528812937944   T   T   T
  0.8089217968366285  0.4188004275130481  0.8466580030007123   T   T   T
  0.3087594790606687  0.4082281356669881  0.2243987591925531   T   T   T
  0.3087588979858893  0.4177046301416638  0.4792519762845870   T   T   T
  0.3091297980564960  0.4188436942972658  0.7245809635982141   T   T   T
  0.3093919767324564  0.4085863290679299  0.9695050965385974   T   T   T
  0.8093207348684999  0.4187472234102998  0.2246182450854093   T   T   T
  0.8093633046958360  0.4115258666022612  0.4761347492569783   T   T   T
  0.8090058001230247  0.4178319485852384  0.7244858309374536   T   T   T
  0.8019787364859781  0.4184930351359384  0.9727310808803935   T   T   T
  0.0029274048901300  0.5179064032520415  0.4513459226952605   T   T   T
  0.0153641688459984  0.5210112769942654  0.9489339474519412   T   T   T
  0.1567644006099869  0.5199764872044241  0.1327030837633600   T   T   T
  0.1577087128046770  0.5228103310816437  0.6300387873156339   T   T   T
  0.6586061328322970  0.5224422739265506  0.3807804756493169   T   T   T
  0.6556741515357984  0.5294120799027198  0.8778708933332169   T   T   T
  0.4320702387035240  0.3155688884214456  0.9491333156032340   T   T   T
  0.0509017250606192  0.3216702819081192  0.1811104017365679   T   T   T
  0.0510367073095495  0.3263177752199624  0.6726975682010377   T   T   T
  0.0610201505651986  0.3172124006482306  0.9282803976493881   T   T   T
  0.5505544048925870  0.3186726949360903  0.1812924319951179   T   T   T
  0.5623118747384268  0.3139131507839039  0.4262472624238640   T   T   T
  0.5510075797863578  0.3161331751689147  0.6828831737238445   T   T   T
  0.3007492831764083  0.3177941064470033  0.4264053401928649   T   T   T
  0.3005988237865438  0.3189467446311482  0.6706471728919610   T   T   T
  0.8005691712316008  0.3188834447962847  0.1707499580531291   T   T   T
  0.8010083970919979  0.3162037235076127  0.6726776451086849   T   T   T
  0.8014605572203664  0.3188441469081269  0.9254859725694189   T   T   T
  0.3956865594605716  0.5279870967510334  0.1812459846068393   T   T   T
  0.3944472796784311  0.5197750353435993  0.6834441733522638   T   T   T
  0.3944733148314015  0.5199678453682992  0.9278804619484546   T   T   T
  0.8943845381376576  0.5200919094237548  0.1829606686399501   T   T   T
  0.8878287989921105  0.5248793813220445  0.6781949039003621   T   T   T
  0.8839981558819616  0.5175094025846931  0.9337216450741508   T   T   T
  0.4823741718787318  0.5981485742708728  0.4338102991709221   F   F   F
  0.3331841362282759  0.4837287981031153  0.0713443112293177   T   T   T
  0.3332961511668699  0.4896417049676884  0.8264570428755675   T   T   T
  0.8332918017870128  0.4895175207198932  0.0714103802972588   T   T   T
  0.8332931870544087  0.4895397299204305  0.5714355126302806   T   T   T
  0.2024047397480686  0.3368710105268704  0.0714096504833677   T   T   T
  0.2015337128092298  0.3418580157162054  0.3262180107979589   T   T   T
  0.2023639290570003  0.3430196963891277  0.8247658774744622   T   T   T
  0.7023205298273183  0.3427977138280838  0.0713767636553229   T   T   T
  0.7023669501483525  0.3468553894130153  0.3263975616256189   T   T   T
  0.7022876544355796  0.3427794279401510  0.8265037840904554   T   T   T
  0.4642133526053200  0.3470702730272350  0.0715062844661318   T   T   T
  0.4633746233843823  0.3519194779378694  0.3262980962295075   T   T   T
  0.9633656468183318  0.3518759866498229  0.3263187931918878   T   T   T
  0.9642160649631606  0.3470625694678873  0.8264733702636065   T   T   T
  0.0594630255135158  0.5101800303886250  0.4592065512682879   T   T   T
  0.0713286994119429  0.5100831628015570  0.9591917007135535   T   T   T
  0.2023378193778456  0.4999963581231270  0.1530812945412379   T   T   T
  0.2022668421311664  0.5002098455089836  0.6530628310064515   T   T   T
  0.7023075062667843  0.5000674427602689  0.4080881032923287   T   T   T
  0.6905364440536275  0.5101589473205408  0.9081839925405433   T   T   T
  0.4879399004525240  0.3265782141884230  0.9591228460234547   T   T   T
  0.1070897344863369  0.3365271826898493  0.1734607356971480   T   T   T
  0.1071128217732422  0.3365491723893967  0.6632862947804199   T   T   T
  0.1070805614648407  0.3365895970834032  0.9081818976807128   T   T   T
  0.6070521880563859  0.3265958769373967  0.1734432185488544   T   T   T
  0.6071095027221389  0.3366590639952207  0.4081799567655082   T   T   T
  0.6070292310017109  0.3264161742292515  0.6734476793072659   T   T   T
  0.3568560930635414  0.3257756892476280  0.4132967106572920   T   T   T
  0.3571613795307940  0.3306840469603216  0.6632927762874701   T   T   T
  0.8563092841294164  0.3315625751908584  0.1632204661155754   T   T   T
  0.8571047160939074  0.3265330334809136  0.6632688972060379   T   T   T
  0.8569930126978846  0.3365248471909865  0.9183676412939832   T   T   T
  0.4413514272137462  0.5050949657039254  0.1632156507242826   T   T   T
  0.4406771655982027  0.5041651882920561  0.6631467660430417   T   T   T
  0.4404562085495627  0.4999998453343935  0.9082083697305876   T   T   T
  0.9414002919591198  0.5049228481188166  0.1631612496200034   T   T   T
  0.9395454006254198  0.5052729869961325  0.6633557387757705   T   T   T
  0.9285098368100080  0.5001746550316639  0.9081853239763191   T   T   T
 
 


