C H N O                                 
   1.00000000000000     
    17.0814999999999984    0.0000000000000000    0.0000000000000000
     0.0000000000000000   21.3509999999999991    0.0000000000000000
     0.0000000000000000    0.0000000000000000   19.7240000000000002
   C    H    N    O 
   133    41     1    68
Selective dynamics
Direct
  0.0359713551362524  0.4629361085421275  0.0629596307803020   T   T   T
  0.0359750632096830  0.4629374419243514  0.5629576564329126   T   T   T
  0.5359751055947352  0.4629372591026986  0.0629604016362613   T   T   T
  0.5359678841479113  0.4629357711522687  0.5629593418480925   T   T   T
  0.0458492133876330  0.4632271520495161  0.3129407967558108   T   T   T
  0.0458502023190347  0.4632256392342441  0.8129437174376281   T   T   T
  0.5458485006954804  0.4632273499129258  0.3129414537493302   T   T   T
  0.5458492460856574  0.4632253291248699  0.8129434531568283   T   T   T
  0.0358071740880226  0.4806902657664566  0.1885022769746468   T   T   T
  0.0358074189763869  0.4806886040247411  0.6885024196031050   T   T   T
  0.5358064804958030  0.4806914209921936  0.1885025414467211   T   T   T
  0.5358041534825250  0.4806899966318955  0.6885000712819173   T   T   T
  0.0366291230600782  0.4808493264735221  0.4384034983360420   T   T   T
  0.0366307807057158  0.4808483494130710  0.9384033557441537   T   T   T
  0.5366283512558011  0.4808490826426193  0.4384041276702863   T   T   T
  0.5366307612721772  0.4808482490724924  0.9384031578455163   T   T   T
  0.2860289858030744  0.4811185799644206  0.0633899197301397   T   T   T
  0.2860288276936158  0.4811183905628654  0.5633896851834995   T   T   T
  0.7860302792971534  0.4811190064178849  0.0633902361236020   T   T   T
  0.7860326108171390  0.4811186951299403  0.5633897176942011   T   T   T
  0.2856689365303562  0.4723492809288493  0.3133015585190624   T   T   T
  0.2856684258434637  0.4723491846426814  0.8133012362720048   T   T   T
  0.7856713208711181  0.4723509516252805  0.3133029910891756   T   T   T
  0.7856681670060470  0.4723485851561733  0.8132995982343332   T   T   T
  0.2861089952828988  0.4717504516147692  0.1881171946045991   T   T   T
  0.2861084213645143  0.4717459543007483  0.6881165620322285   T   T   T
  0.7861085035801931  0.4717504670156200  0.1881179727164195   T   T   T
  0.7861109010640822  0.4717479737833362  0.6881156423238007   T   T   T
  0.2957591654323574  0.4719163534462230  0.4376329216191359   T   T   T
  0.2957582261202966  0.4719155696509263  0.9376338133216447   T   T   T
  0.7957602968098759  0.4719186281246690  0.4376269961031642   T   T   T
  0.7957602666175654  0.4719165801915129  0.9376341704595715   T   T   T
  0.1198730141320676  0.4715487310889199  0.0630502396308422   T   T   T
  0.1198731423957081  0.4715529267011849  0.5630500441591508   T   T   T
  0.6198680170260134  0.4715628314620381  0.0630451776662782   T   T   T
  0.6198668470676002  0.4715591828416919  0.5630445382619408   T   T   T
  0.1303329879399671  0.4719338097380492  0.3134346727130630   T   T   T
  0.1303339527470448  0.4719334185543121  0.8134356291746260   T   T   T
  0.6303313771021780  0.4719344214945752  0.3134338987144795   T   T   T
  0.6303331447940956  0.4719332960687905  0.8134369659263239   T   T   T
  0.1193419952715920  0.4721372355142453  0.1870946609581412   T   T   T
  0.1193443405007177  0.4721351756724739  0.6870925238346129   T   T   T
  0.6193410506980398  0.4721377775798381  0.1870946452736597   T   T   T
  0.6193394402766100  0.4721372311748076  0.6870962941534112   T   T   T
  0.1288177014537107  0.4720647180190203  0.4373485373077449   T   T   T
  0.1288165976425356  0.4720652049750157  0.9373495475438632   T   T   T
  0.6288152340801703  0.4720658213336267  0.4373455762517394   T   T   T
  0.6288162208338328  0.4720653943769706  0.9373510530080831   T   T   T
  0.3699905316763689  0.4716427266004745  0.0621690073122205   T   T   T
  0.3699928234819136  0.4716345094250414  0.5621658015240695   T   T   T
  0.8699909922286119  0.4716423546565062  0.0621689992034227   T   T   T
  0.8699913952805574  0.4716448605221426  0.5621677864001585   T   T   T
  0.3696539147041407  0.4631854811747874  0.3119422094331342   T   T   T
  0.3696532949616896  0.4631850563609904  0.8119434161060421   T   T   T
  0.8696547736973849  0.4631850999018743  0.3119417233655586   T   T   T
  0.8696536811670698  0.4631846812197002  0.8119437280392755   T   T   T
  0.3700120757573891  0.4715700389007757  0.1879743410900180   T   T   T
  0.3700107143642163  0.4715694264867216  0.6879753748384178   T   T   T
  0.8700105208980420  0.4715709484431208  0.1879739635227810   T   T   T
  0.8700128905568993  0.4715703770194673  0.6879730132235832   T   T   T
  0.3805810311749001  0.4727999424689354  0.4382220043564869   T   T   T
  0.3805801078811575  0.4727990847973506  0.9382209125665163   T   T   T
  0.8805825877510781  0.4727998714996006  0.4382207907115332   T   T   T
  0.8805795153906893  0.4727990449488444  0.9382209338547490   T   T   T
  0.1656398021869956  0.4912919626044756  0.1254728059940547   T   T   T
  0.1656415476136967  0.4912972522243792  0.6254711202011491   T   T   T
  0.6656402944619041  0.4912972866977987  0.1254729814701349   T   T   T
  0.6656558188062663  0.4912706732410174  0.6254732450862996   T   T   T
  0.1669774650527988  0.4994264703337031  0.3754049315011839   T   T   T
  0.1669762582797918  0.4994273868426759  0.8754086615898871   T   T   T
  0.6669769821387036  0.4994239601637785  0.3753998357079481   T   T   T
  0.6669755711023101  0.4994266802485371  0.8754094641727477   T   T   T
  0.1666480044081532  0.4725799698454943  0.2495110134586896   T   T   T
  0.1666480483526480  0.4725797094292695  0.7495110590523678   T   T   T
  0.6666489738058617  0.4725808113342082  0.2495103468981607   T   T   T
  0.6666475867113807  0.4725796512753124  0.7495118739016645   T   T   T
  0.1670524223349228  0.4726894440247347  0.0007538918107835   T   T   T
  0.1670528465956461  0.4726896064031164  0.5007537178905813   T   T   T
  0.6670526098659640  0.4726901963762745  0.0007523120512531   T   T   T
  0.6670486106285879  0.4726930253956419  0.5007523628439209   T   T   T
  0.4160386336142823  0.4716861040591278  0.1248514393595106   T   T   T
  0.4160220623244164  0.4716700520111563  0.6248606293572504   T   T   T
  0.9160383907890383  0.4716844073132422  0.1248524398401006   T   T   T
  0.9160343866017499  0.4716762316696548  0.6248611049825344   T   T   T
  0.4171134417263383  0.4719494525411243  0.3742537555893511   T   T   T
  0.4171135208303722  0.4719480744495266  0.8742531004969556   T   T   T
  0.9171148027754663  0.4719480314369224  0.3742526902891993   T   T   T
  0.9171142067307148  0.4719476264123824  0.8742537325853708   T   T   T
  0.4155653355882418  0.4900928265490178  0.2506149284143868   T   T   T
  0.4155605744857155  0.4900913288077411  0.7506140964797396   T   T   T
  0.9155676445374099  0.4900926879336468  0.2506147241674562   T   T   T
  0.9155665029244917  0.4900886801083953  0.7506156267868132   T   T   T
  0.4163223324752403  0.4993173214237195  0.0009083586191652   T   T   T
  0.4163215044296665  0.4993190476706522  0.5009085978499401   T   T   T
  0.9163220744207059  0.4993205441965043  0.0009096528287579   T   T   T
  0.9163235467178539  0.4993107914069458  0.5009072370800560   T   T   T
  0.9991700034330073  0.4905750677570032  0.1245493501122163   T   T   T
  0.9991522246971417  0.4905530223004355  0.6245511348530135   T   T   T
  0.4991810761742489  0.4905826012715532  0.1245496434376288   T   T   T
  0.4991161215204243  0.4905387656366318  0.6245459300526804   T   T   T
  0.0000048204839941  0.4912417060790490  0.3741627419485379   T   T   T
  0.0000046326956441  0.4912394417422410  0.8741649705756493   T   T   T
  0.5000117843715827  0.4912456369869406  0.3741623874522262   T   T   T
  0.5000040151764449  0.4912399153096427  0.8741649797753319   T   T   T
 -0.0000317619763912  0.4721395911194733  0.2494199539205562   T   T   T
 -0.0000312326702478  0.4721406713013698  0.7494204983904833   T   T   T
  0.4999682536233290  0.4721402838876977  0.2494198822838959   T   T   T
  0.4999688077000685  0.4721413304533241  0.7494209795046354   T   T   T
 -0.0002554345471143  0.4811195439228563  0.9993899644369998   T   T   T
 -0.0002542383670935  0.4811202541497281  0.4993907738792282   T   T   T
  0.4997450164781552  0.4811207764045767  0.9993903008352385   T   T   T
  0.4997442373742919  0.4811203143437005  0.4993899645792128   T   T   T
  0.2495942780486995  0.4808398738123115  0.1242891488757046   T   T   T
  0.2495946287252491  0.4808394311644387  0.6242885071636578   T   T   T
  0.7495936016972906  0.4808410492662508  0.1242893365545913   T   T   T
  0.7495961863508601  0.4808386609685877  0.6242892128924025   T   T   T
  0.2504325823729002  0.4807951260888333  0.3744712989013690   T   T   T
  0.2504334990280839  0.4807965237841275  0.8744705836523604   T   T   T
  0.7504298323929777  0.4807952577291713  0.3744711167793787   T   T   T
  0.7504335821271456  0.4807972401110200  0.8744689671841558   T   T   T
  0.2498681473436685  0.4985450828441623  0.2504151734145770   T   T   T
  0.2498665485559796  0.4985417512356352  0.7504111643583730   T   T   T
  0.7498670009455032  0.4985470653128466  0.2504174835332885   T   T   T
  0.7498613070320826  0.4985296726614258  0.7504042197454013   T   T   T
  0.2497692449397955  0.4993419548340429 -0.0003496758155989   T   T   T
  0.2497686459100448  0.4993427846529104  0.4996483005357453   T   T   T
  0.7497720860646424  0.4993402999349972 -0.0003485832246478   T   T   T
  0.7497617217524051  0.4993191882348445  0.4996693448554086   T   T   T
  0.5349293772460015  0.8143467383249998  0.5543347045179985   F   F   F
  0.6190610608081711  0.8317880056613265  0.5318287298293883   T   T   T
  0.4881044370124858  0.7867712325001548  0.4917867902569542   T   T   T
  0.6662699671802720  0.7691600060802150  0.5114250867664827   T   T   T
  0.4037027971532486  0.7869411213078619  0.5098172673079391   T   T   T
  0.3064485968518881  0.5739665676917001  0.4901976543740836   T   T   T
  0.3063331803940441  0.5739605636146128  0.9902160367150050   T   T   T
  0.8064018074677616  0.5741314415143288  0.4905696140480121   T   T   T
  0.8065093583346820  0.5740206291084965  0.9901488862094175   T   T   T
  0.1985070751928104  0.5809289085452823  0.4036168444732393   T   T   T
  0.1985035455455086  0.5809237304305866  0.9036083058419099   T   T   T
  0.6985035392069165  0.5809344339650812  0.4035997571468773   T   T   T
  0.6985026598069450  0.5809226886523542  0.9036085671107700   T   T   T
  0.2107918393784669  0.5736577959226621  0.1572985529242505   T   T   T
  0.2107914769654279  0.5736534825674514  0.6572990440834411   T   T   T
  0.7107875079028223  0.5736649211587513  0.1573034776825563   T   T   T
  0.7108007349059406  0.5735557030159540  0.6571545976140684   T   T   T
  0.4374447710595127  0.5716471417023612  0.2889440489682801   T   T   T
  0.4374458251593194  0.5716383027739798  0.7889458818060089   T   T   T
  0.9374456132008369  0.5716426986617791  0.2889442742757166   T   T   T
  0.9374481725635861  0.5716358799047545  0.7889477723899880   T   T   T
  0.4390313950489515  0.5739598328530683  0.0510897894272248   T   T   T
  0.4390520561901624  0.5739659732056913  0.5510631155013090   T   T   T
  0.9390338816343161  0.5739600596520168  0.0510875171625522   T   T   T
  0.9390446613032079  0.5739654499097370  0.5510715219809558   T   T   T
  0.3188750726770326  0.5712184722354309  0.2481180873908810   T   T   T
  0.3188692111903430  0.5711722570673953  0.7480994244399567   T   T   T
  0.8188727748234769  0.5711624421104570  0.2481008861451784   T   T   T
  0.8188745684523701  0.5712059142747218  0.7481083976992847   T   T   T
  0.0566569969084137  0.5732947131413531  0.3646994838720430   T   T   T
  0.0566479469596367  0.5732815945872963  0.8648190992787508   T   T   T
  0.5565267732750325  0.5733564299527675  0.3646844145923407   T   T   T
  0.5566134469314257  0.5733213620539226  0.8648389910517778   T   T   T
  0.0563188409777849  0.5694775118933876  0.1221749486509744   T   T   T
  0.0558912737213029  0.5690611857703488  0.6231040688959446   T   T   T
  0.5567294744798834  0.5697869477044891  0.1219530886505146   T   T   T
  0.5563146134683596  0.5678949818815888  0.6229409781183000   T   T   T
  0.5031565790864242  0.8570943584591302  0.5701698847470247   T   T   T
  0.5355083286183538  0.7858143888059517  0.6011273025819419   T   T   T
  0.6427803718781984  0.8426920671477030  0.5815959424672970   T   T   T
  0.4970724744362801  0.8175583880097645  0.4504769001361102   T   T   T
  0.5104440923425050  0.7407734954801015  0.4802048192812018   T   T   T
  0.6756413024874419  0.8674513205772728  0.4506357829788463   T   T   T
  0.6307899722422514  0.9238460573480116  0.5002586862362899   T   T   T
  0.6880534958075015  0.6857132595532094  0.5418812521312929   T   T   T
  0.3007850584045471  0.7567278400351075  0.4849610478126206   T   T   T
  0.6304254730283958  0.8790215613902692  0.4798781001172230   T   T   T
  0.2499746504447022  0.5652915277692196  0.4898097976062107   T   T   T
  0.2499501941705702  0.5652873841540570  0.9898073800848353   T   T   T
  0.7500433462698457  0.5653181318442737  0.4898228329337352   T   T   T
  0.7500003161752768  0.5652966108006139  0.9898032172609667   T   T   T
  0.1665912548520286  0.5653190985955657  0.3650794841145441   T   T   T
  0.1665901023554414  0.5653178612835394  0.8650772572463072   T   T   T
  0.6665916587940413  0.5653185631644193  0.3650794135121382   T   T   T
  0.6665904080382965  0.5653175949656898  0.8650776527761864   T   T   T
  0.1666098022600148  0.5643266369864988  0.1254159402842973   T   T   T
  0.1665996710254738  0.5643262002033868  0.6254172537919759   T   T   T
  0.6666227052331475  0.5643266880440588  0.1254147846326183   T   T   T
  0.6666424082220567  0.5643404556673692  0.6253986490146500   T   T   T
  0.4048973428367713  0.5560951143419802  0.2504170194044089   T   T   T
  0.4048986782597709  0.5560954278597453  0.7504169235294973   T   T   T
  0.9048984589964775  0.5560954233431790  0.2504172724028426   T   T   T
  0.9048961709325481  0.5560958955262477  0.7504160860551079   T   T   T
  0.4048167963488933  0.5652975221538554  0.0106869412249323   T   T   T
  0.4048195885003389  0.5652980823743617  0.5106925331092653   T   T   T
  0.9048156004242267  0.5652964617414604  0.0106900116520620   T   T   T
  0.9048184169222647  0.5653007434791271  0.5106920193452366   T   T   T
  0.2616934032499337  0.5652658658658918  0.2497123059375792   T   T   T
  0.2616838701126960  0.5652654410776656  0.7497116241791432   T   T   T
  0.7616826355497311  0.5652645666917478  0.2497106470620581   T   T   T
  0.7616991602164078  0.5652657669228038  0.7497110291042718   T   T   T
 -0.0000080242840717  0.5642688161778673  0.3645189189257221   T   T   T
  0.0000007945832913  0.5642719461695698  0.8645043105179877   T   T   T
  0.4999803351675538  0.5642664651384036  0.3645269580556567   T   T   T
  0.4999885481330420  0.5642700233180358  0.8645058145597767   T   T   T
  0.0000895707716911  0.5562082877018977  0.1148177340588142   T   T   T
  0.0000547777961360  0.5562054085496086  0.6148102859249448   T   T   T
  0.5001132791795979  0.5562185883848574  0.1148168502467115   T   T   T
  0.5000803421566027  0.5561242020792908  0.6148143674031291   T   T   T
  0.3448888335297586  0.4162497527055549  0.4395775633852999   T   T   T
  0.3449020015130159  0.4162510736582928  0.9395789025520678   T   T   T
  0.8448832645896465  0.4162546086032384  0.4395840505827566   T   T   T
  0.8449191152259129  0.4162445723039937  0.9395758322709683   T   T   T
  0.3332573659502356  0.4119331622205102  0.1884024160182147   T   T   T
  0.3332632074976762  0.4119260549104378  0.6884025630978524   T   T   T
  0.8332613329817947  0.4119264806219974  0.1884036164699699   T   T   T
  0.8333074647607390  0.4119564355744973  0.6884032833411832   T   T   T
  0.1665740646556254  0.4160958233046184  0.4683161478952723   T   T   T
  0.1665751629789496  0.4160958316820219  0.9683157951438951   T   T   T
  0.6665749685745074  0.4160963855849664  0.4683164697599584   T   T   T
  0.6665747143762364  0.4160956062389428  0.9683156088980529   T   T   T
  0.0952494537181789  0.4118595020021437  0.3238193739909977   T   T   T
  0.0952296487320920  0.4118794087623853  0.8238189186081768   T   T   T
  0.5952274224027098  0.4118722423048315  0.3238136745492455   T   T   T
  0.5952271140383780  0.4118822281361674  0.8238293271791134   T   T   T
  0.0832755111387946  0.4078458579838722  0.0629944874983932   T   T   T
  0.0832752829835674  0.4078457713850091  0.5629952167917397   T   T   T
  0.5832830513962924  0.4078472607990439  0.0629927001231617   T   T   T
  0.5832731807357994  0.4078461074773700  0.5629967262498727   T   T   T
  0.4047335979396051  0.4120042036263685  0.0928615453710141   T   T   T
  0.4047875367441178  0.4120625380342555  0.5928956095824895   T   T   T
  0.9047160213914185  0.4120052077890474  0.0928646746593242   T   T   T
  0.9048072979820727  0.4120055289307605  0.5928997364494784   T   T   T
  0.4048341583017160  0.4118497854814066  0.3429093712196501   T   T   T
  0.4048399159093971  0.4118539306047474  0.8428988482123988   T   T   T
  0.9048418377692087  0.4118532331680165  0.3429145331658480   T   T   T
  0.9048437713818611  0.4118556524691395  0.8429062125987483   T   T   T
  0.1430708109040769  0.4160705282647660  0.2183826813733065   T   T   T
  0.1430712383758024  0.4160705443668362  0.7183826999188485   T   T   T
  0.6430709393096099  0.4160705968835341  0.2183823341113886   T   T   T
  0.6430660374953058  0.4160688402129762  0.7183792515607059   T   T   T
  0.6545953737329504  0.7217533407776242  0.5524579748635783   T   T   T
  0.3570722086167856  0.7495040652362889  0.4692086453882580   T   T   T
  0.7142299225605436  0.7680152447394809  0.4682871181311603   T   T   T
  0.3696411736204420  0.8238969236019796  0.5471890874553541   T   T   T
 
 


