C H N O                                 
   1.00000000000000     
    17.0814999999999984    0.0000000000000000    0.0000000000000000
     0.0000000000000000   21.3509999999999991    0.0000000000000000
     0.0000000000000000    0.0000000000000000   19.7240000000000002
   C    H    N    O 
     5     9     1     4
Selective dynamics
Direct
  0.5349293772460015  0.8143467383249998  0.5543347045179985   F   F   F
  0.6190610608081712  0.8317880056613234  0.5318287298293853   T   T   T
  0.4881044370124883  0.7867712325001577  0.4917867902569526   T   T   T
  0.6662699671802699  0.7691600060802131  0.5114250867664794   T   T   T
  0.4037027971532510  0.7869411213078621  0.5098172673079375   T   T   T
  0.5031565790864221  0.8570943584591291  0.5701698847470240   T   T   T
  0.5355083286183557  0.7858143888059530  0.6011273025819435   T   T   T
  0.6427803718781959  0.8426920671477021  0.5815959424672954   T   T   T
  0.4970724744362798  0.8175583880097648  0.4504769001361097   T   T   T
  0.5104440923425031  0.7407734954800986  0.4802048192812052   T   T   T
  0.6756413024874419  0.8674513205772740  0.4506357829788499   T   T   T
  0.6307899722422547  0.9238460573480083  0.5002586862362932   T   T   T
  0.6880534958075017  0.6857132595532107  0.5418812521312901   T   T   T
  0.3007850584045499  0.7567278400351043  0.4849610478126181   T   T   T
  0.6304254730283958  0.8790215613902674  0.4798781001172259   T   T   T
  0.6545953737329526  0.7217533407776244  0.5524579748635787   T   T   T
  0.3570722086167848  0.7495040652362874  0.4692086453882567   T   T   T
  0.7142299225605413  0.7680152447394804  0.4682871181311583   T   T   T
  0.3696411736204439  0.8238969236019784  0.5471890874553509   T   T   T
 
 


