C H N O                                 
   1.00000000000000     
    17.0814999999999984    0.0000000000000000    0.0000000000000000
     0.0000000000000000   21.3509999999999991    0.0000000000000000
     0.0000000000000000    0.0000000000000000   19.7240000000000002
   C    H    N    O 
     5    10     2     3
Selective dynamics
Direct
  0.4883818245014666  0.1478878961655141  0.3859929284696832   T   T   T
  0.4042287632317354  0.1663338723652785  0.3953323520103282   T   T   T
  0.5392335180570029  0.1622136619689982  0.4472107760149981   F   F   F
  0.3687952941034354  0.1210271557547671  0.4488221912809749   T   T   T
  0.6193401429030487  0.1305481617944295  0.4380281995629360   T   T   T
  0.4906139249244674  0.0953943572405294  0.3768930867812585   T   T   T
  0.5119742473411932  0.1743462493560344  0.3437004075315571   T   T   T
  0.3724810094355320  0.1567664960789159  0.3466856613760925   T   T   T
  0.5451485516660952  0.2118624357061947  0.4541555640338473   T   T   T
  0.5149022763399387  0.1404811776408650  0.4919402020387125   T   T   T
  0.4020506677236000  0.2382197662122181  0.4660149473716118   T   T   T
  0.3364015757473524  0.2474835856624864  0.4082645119810380   T   T   T
  0.6695250328900784  0.2113773167380160  0.4809894473046867   T   T   T
  0.7352279034666154  0.1504703862574814  0.4635848538397127   T   T   T
  0.3218474229115529  0.0462727977071395  0.4669562559402323   T   T   T
  0.3927695932457738  0.2311363592695841  0.4160901025026646   T   T   T
  0.6787081038594138  0.1660865032934637  0.4682213453465849   T   T   T
  0.3452828133869161  0.0643197283214363  0.4269219892249225   T   T   T
  0.3572262517374512  0.1383651719394408  0.5098184078712933   T   T   T
  0.6309499602369115  0.0827764790017582  0.4064629316687771   T   T   T
 
  