C                                       
   1.00000000000000     
    20.0000000000000000    0.0000000000000000    0.0000000000000000
     0.0000000000000000   21.3509999999999991    0.0000000000000000
     0.0000000000000000    0.0000000000000000   20.0000000000000000
   C 
   160
Selective dynamics
Direct
  0.0406623732407496  0.0176929435430182  0.0296278716838998   T   T   T
  0.0404975927011719  0.0178283122256531  0.1528046742272764   T   T   T
  0.0404901283698464  0.0177857633435039  0.2753321374144591   T   T   T
  0.0404872757173251  0.0177911406177529  0.3978013944366836   T   T   T
  0.0404836227928271  0.0178162548089347  0.5203560828572833   T   T   T
  0.0406331383628213  0.0175802332125841  0.6436460627818121   T   T   T
  0.0405088492027232  0.0178157650063540  0.7751223262009859   T   T   T
  0.0404931027550646  0.0178235172524879  0.8981334271370187   T   T   T
  0.0405725513708006  0.0837774477212321  0.0297311945419381   T   T   T
  0.0405084152787154  0.0838051617254933  0.1528119428451689   T   T   T
  0.0404932869126569  0.0837868714217649  0.2753480716897059   T   T   T
  0.0404927183399906  0.0837830778711179  0.3978153655223622   T   T   T
  0.0404851779905329  0.0837852243811383  0.5203487416363188   T   T   T
  0.0405053161211413  0.0836387294565668  0.6434459781488542   T   T   T
  0.0405012827012925  0.0836930633317792  0.7749447451673888   T   T   T
  0.0405179854141977  0.0837677070881497  0.8983676633853079   T   T   T
  0.0406424825996723  0.1190128883786343  0.0913603578678561   T   T   T
  0.0405165851934584  0.1188528575137866  0.2141466329120547   T   T   T
  0.0405168773864588  0.1188339470738526  0.3366120952085438   T   T   T
  0.0405135988332006  0.1188363633820728  0.4590715845002933   T   T   T
  0.0405044580383915  0.1188701269590950  0.5817637843536190   T   T   T
  0.0406198710059371  0.1161639837912958  0.7100584193134267   T   T   T
  0.0405042445667050  0.1188723229815380  0.8366028563865839   T   T   T
  0.0407421882172159  0.1174760635339354  0.9625735711283099   T   T   T
  0.0405721715774092  0.1847442292430870  0.0909027647385017   T   T   T
  0.0404880463765949  0.1843849814255236  0.2140647826244475   T   T   T
  0.0405011651705607  0.1843419577781447  0.3365392726779035   T   T   T
  0.0404822053380656  0.1843328799174060  0.4590259853735503   T   T   T
  0.0404960902493201  0.1844950656206663  0.5818848249064601   T   T   T
  0.0407311016342433  0.1822030976034767  0.7105606653570007   T   T   T
  0.0404879434540035  0.1843872163734304  0.8364796006127619   T   T   T
  0.0406860030767433  0.1845145192667630  0.9602732453392804   T   T   T
  0.0407100741522655  0.2170153967922062  0.0263367173669238   T   T   T
  0.0405040121709632  0.2136405898010239  0.1526948207538652   T   T   T
  0.0404882676592493  0.2136458771593297  0.2753143467323866   T   T   T
  0.0404899340126832  0.2136425440368157  0.3977831350714780   T   T   T
  0.0404803698741958  0.2136436382300317  0.5203326347899733   T   T   T
  0.0406833942201530  0.2136088585288505  0.6439615002789623   T   T   T
  0.0404883318179756  0.2133087067332156  0.7747370677994496   T   T   T
  0.0404935623796021  0.2135423779405770  0.8981411956818945   T   T   T
  0.0407375550991063  0.2839190372455036  0.0268875420798551   T   T   T
  0.0405608051662725  0.2791729299479613  0.1527425077439446   T   T   T
  0.0404800248862145  0.2792160924746341  0.2753749424170948   T   T   T
  0.0404620336853512  0.2792142867233807  0.3978441088735636   T   T   T
  0.0404392218283718  0.2791781139561564  0.5204348486420400   T   T   T
  0.0407385722372737  0.2805753248574590  0.6462062443760459   T   T   T
  0.0404981560073310  0.2786414858365447  0.7750427925790717   T   T   T
  0.0404454099428904  0.2791624548097289  0.8980769875038490   T   T   T
  0.0405203989762342  0.3144606682707902  0.0913421946105260   T   T   T
  0.0405016625294436  0.3142942332882654  0.2140752233494752   T   T   T
  0.0404932705338155  0.3142901952565609  0.3365747355001290   T   T   T
  0.0404870327118019  0.3142922881272341  0.4590768081711545   T   T   T
  0.0405171462414486  0.3143210242991188  0.5820698528356800   T   T   T
  0.0406116249147033  0.3141854680549798  0.7134419902779570   T   T   T
  0.0404872956168347  0.3142582835215606  0.8365848469370434   T   T   T
  0.0405074884125156  0.3145235565867921  0.9597731136339362   T   T   T
  0.0405078042470777  0.3803014604645369  0.0914741866269893   T   T   T
  0.0404928736381791  0.3802471001514007  0.2141115443229040   T   T   T
  0.0404928435090142  0.3802581750276275  0.3365832344155848   T   T   T
  0.0404891012018140  0.3802493155980500  0.4590689467595297   T   T   T
  0.0405155014010177  0.3802843987096409  0.5820852559097887   T   T   T
  0.0405778229342388  0.3801776607144589  0.7134664195363953   T   T   T
  0.0404901247158023  0.3802166054869147  0.8365942988390103   T   T   T
  0.0405842741833169  0.3804153799401178  0.9599339502739639   T   T   T
  0.0406653017157197  0.4159576169910721  0.0295561926580490   T   T   T
  0.0404978878853228  0.4160262618683888  0.1528198428751324   T   T   T
  0.0404949507259929  0.4159898736731193  0.2753505408855474   T   T   T
  0.0404789890938915  0.4160107403448521  0.3978216870699285   T   T   T
  0.0404942716274377  0.4160309644116182  0.5204599004858110   T   T   T
  0.0406782530582674  0.4142390363127788  0.6468262960588973   T   T   T
  0.0405104072917339  0.4160355827456925  0.7751575565123758   T   T   T
  0.0404963384837060  0.4160105596368098  0.8981630522272681   T   T   T
  0.0406550939959160  0.4821029530315286  0.0295619818566166   T   T   T
  0.0405020955056230  0.4820482292197639  0.1528075135531850   T   T   T
  0.0404951662945052  0.4820633909188530  0.2753552681555149   T   T   T
  0.0404668369117118  0.4820534992105650  0.3978534836407448   T   T   T
  0.0405135119790003  0.4820293874461612  0.5208730451564705   T   T   T
  0.0406871694324309  0.4818784748214213  0.6516298958811859   T   T   T
  0.0405001884143488  0.4820344342001661  0.7752885525083357   T   T   T
  0.0405009723898857  0.4820647083091316  0.8981586990399251   T   T   T
  0.0405124198454772  0.5177802391720832  0.0913871019401782   T   T   T
  0.0404925798588991  0.5178109799095267  0.2141161184678992   T   T   T
  0.0404813550596046  0.5177980176041217  0.3366030143152869   T   T   T
  0.0404779082473397  0.5178110148222288  0.4592236953127724   T   T   T
  0.0406208758350033  0.5166666666659978  0.5855325419810029   F   F   F
  0.0405108607194862  0.5177560025886763  0.7138358037400252   T   T   T
  0.0404854671732693  0.5178274791551090  0.8366531383127054   T   T   T
  0.0406248834671530  0.5177587304380111  0.9600268151363878   T   T   T
  0.0405221953265453  0.5838067132439591  0.0914010452750134   T   T   T
  0.0404977818623067  0.5837885390260951  0.2141058290824560   T   T   T
  0.0404944780487853  0.5837833801653929  0.3365787340766886   T   T   T
  0.0404924312437274  0.5837703892793655  0.4590862272376768   T   T   T
  0.0405218030715488  0.5835273615051690  0.5823205066237875   T   T   T
  0.0405502632341239  0.5838042428793671  0.7135125390640340   T   T   T
  0.0404925881017490  0.5838009430211173  0.8366164458649692   T   T   T
  0.0405623352323090  0.5838203017704515  0.9600264516224399   T   T   T
  0.0407224051800412  0.6190281212076556  0.0297559498591724   T   T   T
  0.0405548250850458  0.6188773131783520  0.1528219075721111   T   T   T
  0.0405219408046378  0.6188328825262417  0.2753935964471665   T   T   T
  0.0405118350347138  0.6188464586399292  0.3978569207921083   T   T   T
  0.0405403258711132  0.6187626301565885  0.5204737086244151   T   T   T
  0.0407401918466022  0.6168285577915071  0.6476101185138887   T   T   T
  0.0406120336744777  0.6190543807400104  0.7750622829621818   T   T   T
  0.0405227981592233  0.6189367263095136  0.8981830883299367   T   T   T
  0.0405975258623243  0.6847509380508043  0.0296597761007789   T   T   T
  0.0405096309218678  0.6845403594657142  0.1526654496374817   T   T   T
  0.0404836597759228  0.6843795102343648  0.2753131196353564   T   T   T
  0.0404925358645301  0.6844049140371027  0.3977861941903598   T   T   T
  0.0403819291360605  0.6839098074195462  0.5203172470623514   T   T   T
  0.0406859646489153  0.6841606545266075  0.6437853679269026   T   T   T
  0.0405852308759620  0.6847019376280485  0.7745500836914658   T   T   T
  0.0405059572621909  0.6846777436921627  0.8985277547930934   T   T   T
  0.0406724349701832  0.7147240391763248  0.0915251826617904   T   T   T
  0.0404867323453857  0.7136588999469993  0.2141193718163379   T   T   T
  0.0404900782858491  0.7136534910725416  0.3365405478164476   T   T   T
  0.0404763386320184  0.7136225672941094  0.4590468102872691   T   T   T
  0.0404894028674860  0.7134719234514577  0.5818399408966641   T   T   T
  0.0407281251742475  0.7163705988595268  0.7089610024094455   T   T   T
  0.0404902346060609  0.7136004864374499  0.8365264804365395   T   T   T
  0.0407326722511669  0.7156621259406037  0.9626120702116197   T   T   T
  0.0406795146786507  0.7851866209542351  0.0915682415079857   T   T   T
  0.0404347438077295  0.7791375561828389  0.2141815335411934   T   T   T
  0.0404688471713186  0.7792104256332095  0.3366034168154428   T   T   T
  0.0404542683176814  0.7792016020314989  0.4590846337393018   T   T   T
  0.0404297818688732  0.7791370439296514  0.5817481950216745   T   T   T
  0.0407377000799087  0.7814855628330548  0.7090716051257857   T   T   T
  0.0404768060819052  0.7792009014996424  0.8365777883847514   T   T   T
  0.0407468604720265  0.7808061682089047  0.9626557919445489   T   T   T
  0.0405859783536258  0.8147433399693469  0.0295643931715119   T   T   T
  0.0404817124960530  0.8146345885426811  0.1531760824007478   T   T   T
  0.0404915137958710  0.8142783225025312  0.2753325353050187   T   T   T
  0.0404909236339464  0.8142813383847880  0.3978223450363885   T   T   T
  0.0404787466726972  0.8142815377741144  0.5203476963533475   T   T   T
  0.0405147349772150  0.8144201423255950  0.6433774415852653   T   T   T
  0.0405238052643497  0.8143368628315955  0.7748670954249590   T   T   T
  0.0405167619384912  0.8143285067539381  0.8983205091546154   T   T   T
  0.0406827723874770  0.8804909482394550  0.0295505691194293   T   T   T
  0.0404819440251885  0.8803586057081887  0.1529687160261588   T   T   T
  0.0404913548380748  0.8802563180763983  0.2753436637013138   T   T   T
  0.0404895458850305  0.8802486501302980  0.3978153774685325   T   T   T
  0.0404840110096671  0.8802357912281025  0.5203622624959436   T   T   T
  0.0406001215365137  0.8804044448216217  0.6436399218737847   T   T   T
  0.0405140757608393  0.8802135324753380  0.7751157476416424   T   T   T
  0.0404959800295970  0.8802378039250982  0.8981255096921785   T   T   T
  0.0405152793366739  0.9159857943382335  0.0914015810484514   T   T   T
  0.0404893725718267  0.9160324368091537  0.2141203937664855   T   T   T
  0.0404821813644247  0.9159871195253686  0.3365671901157299   T   T   T
  0.0404877029757671  0.9160032741888742  0.4590502492322983   T   T   T
  0.0405006302423345  0.9159902371952171  0.5818660691713191   T   T   T
  0.0406701232617479  0.9159594082586224  0.7132091421357600   T   T   T
  0.0404855283458048  0.9160317677056113  0.8366008620866054   T   T   T
  0.0406136732443514  0.9159757967979161  0.9600347121526482   T   T   T
  0.0405156140484308  0.9820712122862005  0.0913924643909354   T   T   T
  0.0404928762399095  0.9820601983171855  0.2141138665374811   T   T   T
  0.0404926985224421  0.9820482000408646  0.3365685879638178   T   T   T
  0.0404900417354739  0.9820553409169435  0.4590481732373277   T   T   T
  0.0405048921511906  0.9820543384104354  0.5818592768235860   T   T   T
  0.0406637060520936  0.9820871621991074  0.7131893114995691   T   T   T
  0.0404888213573216  0.9820238222588671  0.8365943643985574   T   T   T
  0.0405818383006533  0.9820849553323896  0.9599991883889203   T   T   T
 
  


