C H N O                                 
   1.00000000000000     
    17.0814999999999984    0.0000000000000000    0.0000000000000000
     0.0000000000000000   20.0000000000000000    0.0000000000000000
     0.0000000000000000    0.0000000000000000   19.7743000000000002
   C    H    N    O 
   133    33     1    42
Selective dynamics
Direct
  0.0957895689295795  0.5199574952802508  0.0406011467499684   T   T   T
  0.0961410686674540  0.5297941588207009  0.2858657359406083   T   T   T
  0.0959008073831104  0.5203149665223280  0.5406331149318239   T   T   T
  0.0960624524984130  0.5297844985485854  0.7859257901365756   T   T   T
  0.5954749862744194  0.5300216412879241  0.0405504765486157   T   T   T
  0.5960178343891249  0.5297418042229129  0.2859640921865120   T   T   T
  0.5960393421091208  0.5201086747414388  0.5406807498533410   T   T   T
  0.5957478399029370  0.5291557591962132  0.7856758286342340   T   T   T
  0.1061472588721853  0.5007520335255912  0.1634069485693897   T   T   T
  0.1053393678857512  0.5202648954370662  0.4080456066078245   T   T   T
  0.1064059033204304  0.5008741513917289  0.6632286462344070   T   T   T
  0.1061013746290878  0.5006122122145077  0.9083222304502011   T   T   T
  0.6061331242723300  0.5005836425919068  0.1632670475033908   T   T   T
  0.6012698624183183  0.5054602863037423  0.4104733769048888   T   T   T
  0.6061577475180753  0.5004546635741917  0.6633881137519002   T   T   T
  0.5955130741129365  0.5206733533582303  0.9084741510508205   T   T   T
  0.3514135980772571  0.5205425438002246  0.0348509064903312   T   T   T
  0.3457751228724170  0.5199489502491931  0.2860209862881838   T   T   T
  0.3459158717242733  0.5206808726489620  0.5408016638121973   T   T   T
  0.3564408951029059  0.5208886034070712  0.7857205703160688   T   T   T
  0.8509867222942323  0.5241868581706162  0.0327642830792514   T   T   T
  0.8469706894094250  0.5204065819848079  0.2856028732724599   T   T   T
  0.8558700266370383  0.5207088027300015  0.5356895581140887   T   T   T
  0.8456433920884918  0.5204848292202633  0.7858445903778586   T   T   T
  0.3460748503693678  0.5106872386455404  0.1634738672997134   T   T   T
  0.3560142607543018  0.5104122439942446  0.4175106775467892   T   T   T
  0.3561750098986182  0.5007751599841034  0.6631591288053906   T   T   T
  0.3461080592884552  0.5102395529029740  0.9092726545052847   T   T   T
  0.8564842726549025  0.5005353228537843  0.1632153687857181   T   T   T
  0.8456822783614484  0.5202309228145888  0.4082288723302192   T   T   T
  0.8562460404751993  0.5005998005182809  0.6632478851978995   T   T   T
  0.8458330573253895  0.5006797858551016  0.9083893305920693   T   T   T
  0.1789803321246555  0.5005203512091547  0.0394360422150172   T   T   T
  0.1788805902168259  0.5007082323224891  0.2857220940835606   T   T   T
  0.1794984489463333  0.5107396146135215  0.5404025658042672   T   T   T
  0.1788799513896237  0.5007427431031465  0.7857181819418436   T   T   T
  0.6788682175954192  0.5103622892468422  0.0405216210079640   T   T   T
  0.6787915491193982  0.5014286622940973  0.2857644858024035   T   T   T
  0.6798699790873934  0.5107170623082878  0.5406930825946225   T   T   T
  0.6790273210764488  0.5008282105368361  0.7858292572560404   T   T   T
  0.1896161136526448  0.5301941609051477  0.1630172267361001   T   T   T
  0.1803886470928021  0.5107759820610394  0.4085750927288864   T   T   T
  0.1896265266581572  0.5303342133507190  0.6630805091289660   T   T   T
  0.1897858296402029  0.5198227321089076  0.9086747847673016   T   T   T
  0.6899966747043865  0.5111012945882727  0.1636726225113358   T   T   T
  0.6895303837596357  0.5304633881484996  0.4092917015960357   T   T   T
  0.6900922238521393  0.5107375098275695  0.6631942783659666   T   T   T
  0.6790434047681705  0.5312687840266714  0.9081311247889439   T   T   T
  0.4364145847417640  0.5100237381551606  0.0372794521475391   T   T   T
  0.4299026070238124  0.5101675594768039  0.2859626717601559   T   T   T
  0.4311073482452138  0.5140213271212508  0.5409039967038963   T   T   T
  0.4400259637438305  0.5104241963399877  0.7857058241552741   T   T   T
  0.9396351834383615  0.5108451785199438  0.0306929607049055   T   T   T
  0.9384905331813871  0.5101336886820298  0.2856059944614677   T   T   T
  0.9402674404645790  0.5102120326356172  0.5393234543380294   T   T   T
  0.9295249381706979  0.5097989695881123  0.7857315478528542   T   T   T
  0.4291464824608874  0.5307624887630185  0.1632971449590125   T   T   T
  0.4397804429092709  0.5301861364086237  0.4180976787123227   T   T   T
  0.4386514885130086  0.5304573783039011  0.6633096757155541   T   T   T
  0.4294639344070966  0.5302424264176293  0.9083285283525957   T   T   T
  0.9390454605671490  0.5306282521404577  0.1627137958859864   T   T   T
  0.9291933860913301  0.5206396513634282  0.4095023144728089   T   T   T
  0.9386171489254623  0.5305297589789096  0.6632245296334949   T   T   T
  0.9291940014861890  0.5306048583471842  0.9083638143023688   T   T   T
  0.2261118013796338  0.5005454161472357  0.1018403784383384   T   T   T
  0.2260085805344571  0.5096348367446228  0.3471032413392491   T   T   T
  0.2265011255663843  0.5105423024174720  0.6007722845858304   T   T   T
  0.2262734938864131  0.5010702483529234  0.8469080451385422   T   T   T
  0.7264841782328479  0.5006562049859492  0.1017086080596379   T   T   T
  0.7261181645021638  0.5011077174094740  0.3472552731843717   T   T   T
  0.7257800551230192  0.5106438855969684  0.6018337331441120   T   T   T
  0.7254673327856136  0.5096168014925879  0.8470488399621402   T   T   T
  0.2262043986220120  0.5102597836888366  0.2246456130498388   T   T   T
  0.2250182183758428  0.5113249380665544  0.4722012117484055   T   T   T
  0.2271279792336979  0.5108400776759657  0.7247223204521376   T   T   T
  0.2255685397109018  0.5107953861318653  0.9695902490569418   T   T   T
  0.7260375830420216  0.5197870192843010  0.2243753174322223   T   T   T
  0.7262550103505089  0.5107102747428364  0.4793397221082767   T   T   T
  0.7265380214427276  0.5106834121884113  0.7244905598858047   T   T   T
  0.7203755464220183  0.5161890943154275  0.9720960947664459   T   T   T
  0.4760880757857157  0.5110252282876871  0.1020533077927799   T   T   T
  0.4760499217044393  0.5203703102278242  0.3484942017025522   T   T   T
  0.4764682570110132  0.5110070180577500  0.6016623203336504   T   T   T
  0.4762448569310059  0.5108144421625964  0.8469358038032806   T   T   T
  0.9764482422952313  0.5202117909397560  0.0934074756442999   T   T   T
  0.9763093848195965  0.5201851938445110  0.3473571441882111   T   T   T
  0.9767395058384665  0.5109559152512729  0.6016578960428630   T   T   T
  0.9758519527447456  0.5195111280187575  0.8469794963150116   T   T   T
  0.4764023023518260  0.5110692189860639  0.2244033621099150   T   T   T
  0.4762054624128480  0.5208529485670015  0.4795783789063450   T   T   T
  0.4770499843144541  0.5108557678699740  0.7245683861997707   T   T   T
  0.4762966337697753  0.5004807485030611  0.9694585247666979   T   T   T
  0.9805992710390690  0.5140576001869424  0.2241850898223390   T   T   T
  0.9753859322875571  0.5108245473875532  0.4695992862802331   T   T   T
  0.9768955870636761  0.5109286376915296  0.7245361473806862   T   T   T
  0.9761105162211956  0.5106900779125774  0.9694410014665635   T   T   T
  0.0593604917725013  0.5200348730821416  0.1016620705677344   T   T   T
  0.0599035867863556  0.5308678222203005  0.3470126580640839   T   T   T
  0.0594205923400304  0.5199238895080655  0.6018787637839090   T   T   T
  0.0598291846500472  0.5302760917196899  0.8469628432238488   T   T   T
  0.5597398547697875  0.5298950201435010  0.1019528234265784   T   T   T
  0.5595724870142933  0.5304809052047041  0.3470011876041441   T   T   T
  0.5590395944915324  0.5197768753820617  0.6020288303786616   T   T   T
  0.5578817310650022  0.5204033295592538  0.8468872302601049   T   T   T
  0.0593356573839406  0.5207828692891479  0.2244535149115971   T   T   T
  0.0592597901222729  0.5309682085251362  0.4695983524023186   T   T   T
  0.0587866437749808  0.5203676730149243  0.7244840471446953   T   T   T
  0.0599542211403760  0.5308098016561984  0.9695279232086285   T   T   T
  0.5587226804841607  0.5205936112590364  0.2244311465837646   T   T   T
  0.5592278575664159  0.5205903616653592  0.4793748847071135   T   T   T
  0.5592882684624638  0.5206698471444819  0.7245479710189888   T   T   T
  0.5594028010772766  0.5210657875171026  0.9696840638994718   T   T   T
  0.3091323591981259  0.5199552379831190  0.1015489436295059   T   T   T
  0.3096882085889456  0.5208934992275043  0.3470810474547548   T   T   T
  0.3089951092447800  0.5197597262868179  0.6019226636919491   T   T   T
  0.3092131574575364  0.5197815148361634  0.8469163100354787   T   T   T
  0.8101397200282140  0.5202565352308347  0.1016969136565118   T   T   T
  0.8092004889948710  0.5200471929506075  0.3468965977908626   T   T   T
  0.8098971693110950  0.5206230531545663  0.6018368125892822   T   T   T
  0.8089716541041448  0.5201385871788338  0.8467920588571137   T   T   T
  0.3086844767639756  0.5104826835223987  0.2244120382525679   T   T   T
  0.3083405947212340  0.5208525383885808  0.4792815911793788   T   T   T
  0.3090310808790575  0.5197550611665255  0.7245638506955744   T   T   T
  0.3093722089146085  0.5104800731607624  0.9694997447349537   T   T   T
  0.8095742106718553  0.5206436069106123  0.2246104990090093   T   T   T
  0.8090668146697618  0.5104789311841271  0.4708960615844353   T   T   T
  0.8089887148188537  0.5200678701736807  0.7244871835954618   T   T   T
  0.7984744855367412  0.5199379035273436  0.9696470904106881   T   T   T
  0.4873752978495653  0.7354738173232818  0.4798243043703368   T   T   T
  0.5716303412192429  0.7453677836019871  0.4997938053050999   T   T   T
  0.4287984015688110  0.7455662590619829  0.5405839950921176   T   T   T
  0.5945620441701542  0.8157310091339622  0.5205298679484667   T   T   T
  0.3511993859292236  0.7152113918153855  0.5211334125350932   T   T   T
  0.0036880467501198  0.6197371052713020  0.4520904521669197   T   T   T
  0.0149897719715354  0.6198549677457685  0.9512795635336440   T   T   T
  0.1564354214637758  0.6217699821428281  0.1329213796477793   T   T   T
  0.1574895775824591  0.6249393391355298  0.6349652266017571   T   T   T
  0.6581900969243708  0.6248896400418971  0.3826742790768707   T   T   T
  0.6575301696252164  0.6300213858291798  0.8798147772243294   T   T   T
  0.4329918964153686  0.4173548209426537  0.9527773922220160   T   T   T
  0.0505458013668041  0.4208978060541429  0.1813727686206390   T   T   T
  0.0506854349540617  0.4255091833147137  0.6782832029401517   T   T   T
  0.0597987503426974  0.4106334034521036  0.9280055195755931   T   T   T
  0.5505625113818013  0.4208146739021441  0.1813264440975477   T   T   T
  0.5606444328402276  0.4095466816945289  0.4283826120264235   T   T   T
  0.5505308584734533  0.4207911096104649  0.6813325492283862   T   T   T
  0.3008335964639612  0.4240416740381866  0.4260534337157904   T   T   T
  0.3005290346276440  0.4208407884277648  0.6710598334546949   T   T   T
  0.8009667420473218  0.4183656955420316  0.1727101212816095   T   T   T
  0.8009910001663331  0.4189159026993670  0.6732154146432860   T   T   T
  0.8010851978033516  0.4177211994918815  0.9283471705302285   T   T   T
  0.3956797874651288  0.6292954167871717  0.1805607663076011   T   T   T
  0.3944670754622136  0.6217104136330943  0.6834199819224305   T   T   T
  0.3945063661335568  0.6221258876720895  0.9279117302704090   T   T   T
  0.8944330389985118  0.6217581140983431  0.1833930438168165   T   T   T
  0.8958631006522858  0.6272347646677927  0.6810760961932625   T   T   T
  0.8951226677111807  0.6224415910081372  0.9285010100590958   T   T   T
  0.4790519144635962  0.6861177404234803  0.4613526549444961   T   T   T
  0.4671284898958389  0.7717598950867985  0.4410813501381565   T   T   T
  0.6042209646112653  0.7423460950872340  0.4512430919664474   T   T   T
  0.4494074014209421  0.7270469828150792  0.5895477946955360   T   T   T
  0.4192173152610455  0.8024054419811918  0.5487199374163623   T   T   T
  0.6398319940604625  0.7269665625092468  0.5793065805800222   T   T   T
  0.6153050571554131  0.6563567093908085  0.5384532241752878   T   T   T
  0.5685340642437414  0.9055229736233134  0.4915413803661915   T   T   T
  0.2468529848992432  0.7219267488332477  0.5535975685126786   T   T   T
  0.5956016368836533  0.7034241884330935  0.5522878752959569   T   T   T
  0.3332464810226875  0.5816809242505795  0.0713749659482518   T   T   T
  0.3332820648676500  0.5817949571354065  0.8264408009660879   T   T   T
  0.8332576078796079  0.5817220219973975  0.0714358755116286   T   T   T
  0.8332861684825420  0.5816764712333755  0.5714032978031480   T   T   T
  0.2023910765168128  0.4388430389793878  0.0714408454698663   T   T   T
  0.2023447240909691  0.4389209742759702  0.3264439120112794   T   T   T
  0.2023599938944965  0.4387903338049747  0.8264278879338625   T   T   T
  0.7023472203664085  0.4389374771067595  0.0713780473030200   T   T   T
  0.7023862564825377  0.4388547924479756  0.3264244530241949   T   T   T
  0.7023218959185459  0.4389935840507682  0.8264926263971468   T   T   T
  0.4641774120335817  0.4490365438029254  0.0715321855431986   T   T   T
  0.4641961161869806  0.4491477751414379  0.3265131757778753   T   T   T
  0.9642231496501749  0.4490777135973749  0.3264925090759960   T   T   T
  0.9642028223166796  0.4491368047080905  0.8264970896582546   T   T   T
  0.0593771182909439  0.6023470663701027  0.4592149638826604   T   T   T
  0.0713031957108210  0.6021388440947919  0.9591883174601296   T   T   T
  0.2022998272341708  0.6020420099348638  0.1530833915759802   T   T   T
  0.2023007128736917  0.6021553828902634  0.6531146105818070   T   T   T
  0.7022372524495916  0.6021137797295959  0.4081167860639159   T   T   T
  0.6905045737835791  0.6022785902270335  0.9081759125817670   T   T   T
  0.4878937800667697  0.4285826754560960  0.9691879075713847   T   T   T
  0.1070899258230346  0.4286303959442725  0.1734591250570265   T   T   T
  0.1070693531332465  0.4286356891793495  0.6633025766810811   T   T   T
  0.1070682712735654  0.4286194516003638  0.9081922416475766   T   T   T
  0.6062289293175518  0.4283393921193051  0.1683435445690178   T   T   T
  0.6070856660502510  0.4287348276850406  0.4081907778822892   T   T   T
  0.6070320258662409  0.4285283005704612  0.6734474438052291   T   T   T
  0.3570496114250978  0.4386211815238431  0.4183889614417850   T   T   T
  0.3571040158092306  0.4286107164644262  0.6632859752607739   T   T   T
  0.8570790004681923  0.4285942923906975  0.1632880259624039   T   T   T
  0.8570741883709188  0.4285968427820567  0.6632861650357427   T   T   T
  0.8570133095502772  0.4286349908443077  0.9183698806034412   T   T   T
  0.4403894869548187  0.6022331812323127  0.1633071082095755   T   T   T
  0.4404234827970652  0.6021314739542150  0.6632602079218114   T   T   T
  0.4404488370413667  0.6020777207688635  0.9082095361565352   T   T   T
  0.9404237996459421  0.6021862199664391  0.1632892854201760   T   T   T
  0.9404481553206937  0.6021954009095497  0.6632799911772022   T   T   T
  0.9403104222687677  0.6022124103852137  0.9081930663273832   T   T   T
  0.5594993282973308  0.8574072210790544  0.4795825137818294   T   T   T
  0.2975416384606391  0.7448667252710038  0.5612220843266533   T   T   T
  0.6309740277639871  0.8266417756213534  0.5714463840664158   T   T   T
  0.3333613530465678  0.6735257712113505  0.4795862244778288   T   T   T
 
  


