C H N O                                 
   1.00000000000000     
    20.0000000000000000    0.0000000000000000    0.0000000000000000
     0.0000000000000000   21.3509999999999991    0.0000000000000000
     0.0000000000000000    0.0000000000000000   20.0000000000000000
   C    H    N    O 
     5    10     2     3
Selective dynamics
Direct
  0.2339310445859866  0.5367878446249819  0.5193123651037439   T   T   T
  0.2544376150681771  0.5454864994720907  0.5914718356659137   T   T   T
  0.2847570845749985  0.5051634147580017  0.4685728442989969   F   F   F
  0.2551518190330881  0.4765796157868394  0.6190835134578592   T   T   T
  0.2542790876736873  0.4902042234536879  0.3984368404198051   T   T   T
  0.1862242961169045  0.5108129819846638  0.5127348178423077   T   T   T
  0.2169334165592716  0.5817679990865940  0.4976282107200873   T   T   T
  0.2164344796287452  0.5722606122305791  0.6186979744808525   T   T   T
  0.3250734155019828  0.5367302387342150  0.4594303111618316   T   T   T
  0.3026869073716085  0.4638901847974211  0.4960199960829499   T   T   T
  0.3549487894189411  0.5458819300823947  0.5815661783650938   T   T   T
  0.3240885670370162  0.5908794394482300  0.6402227894340839   T   T   T
  0.3444155455108486  0.5062021100804444  0.3535146800157705   T   T   T
  0.2830844248139144  0.4743157422334932  0.2986508646380130   T   T   T
  0.2002882810850508  0.4088893532784184  0.6450007721589941   T   T   T
  0.3166188470119522  0.5749184212408167  0.5923519994776569   T   T   T
  0.2963403993339782  0.4911867908118097  0.3462908422475834   T   T   T
  0.1938711579873029  0.4533437366691615  0.6326633576923513   T   T   T
  0.3060329343805890  0.4448873331506817  0.6224241669826185   T   T   T
  0.1939351335676989  0.4740839262684915  0.3919647670296911   T   T   T
 
 


