C H N O                                 
   1.00000000000000     
    17.0814999999999984    0.0000000000000000    0.0000000000000000
     0.0000000000000000   21.3509999999999991    0.0000000000000000
     0.0000000000000000    0.0000000000000000   19.7240000000000002
   C    H    N    O 
   133    42     2    67
Selective dynamics
Direct
  0.0364255161790155  0.4169839075217467  0.0620468518809147   T   T   T
  0.0364202314518565  0.4169818415573729  0.5620465697886061   T   T   T
  0.5364273972568654  0.4169849168290227  0.0620469248842284   T   T   T
  0.5364340136262697  0.4169882429672356  0.5620424017263801   T   T   T
  0.0461399274206613  0.4172432713313583  0.3127155434893396   T   T   T
  0.0461492983402181  0.4172460926851329  0.8127235362783480   T   T   T
  0.5461939832632368  0.4172534716239085  0.3127466483976562   T   T   T
  0.5461409215556685  0.4172437837378098  0.8127153382905874   T   T   T
  0.0360773824648390  0.4346864187637536  0.1884025055536824   T   T   T
  0.0360765132952707  0.4346861392983712  0.6884020606646217   T   T   T
  0.5360774641387991  0.4346855937560861  0.1884020967544160   T   T   T
  0.5360766237186709  0.4346862446778346  0.6884033109664216   T   T   T
  0.0408154429264869  0.4325975409509866  0.4379690714552424   T   T   T
  0.0407724425071692  0.4325511867403904  0.9379487046845085   T   T   T
  0.5407094164095909  0.4323660656426824  0.4378928151482668   T   T   T
  0.5407632348548077  0.4325738395678158  0.9379570129014709   T   T   T
  0.2863189089105802  0.4352628557639449  0.0632447806493133   T   T   T
  0.2863205196411442  0.4352615293923634  0.5632441399022596   T   T   T
  0.7863181393627983  0.4352629564483479  0.0632447882386131   T   T   T
  0.7863162697362114  0.4352610433984836  0.5632451374823049   T   T   T
  0.2859897648563674  0.4263512496671140  0.3131930542155104   T   T   T
  0.2859508762497214  0.4263620823147605  0.8131890570420381   T   T   T
  0.7859508067350518  0.4263601618581347  0.3131891837305787   T   T   T
  0.7859508743247048  0.4263632264360453  0.8131873859776206   T   T   T
  0.2873302550126198  0.4257483883524600  0.1875713896941278   T   T   T
  0.2873277305336472  0.4257495470128916  0.6875729598837594   T   T   T
  0.7873276370754425  0.4257505111808797  0.1875741965587565   T   T   T
  0.7873351365450674  0.4257577012094487  0.6875682495489315   T   T   T
  0.2959693121707261  0.4259324339335961  0.4374104436261845   T   T   T
  0.2959647150430698  0.4259315981710543  0.9374076668134634   T   T   T
  0.7959639529659697  0.4259359042385782  0.4374101703787829   T   T   T
  0.7959642623687415  0.4259318174508380  0.9374078543615880   T   T   T
  0.1232105640262944  0.4197701203132738  0.0626634211109405   T   T   T
  0.1232012174793198  0.4197636954740744  0.5626637678250290   T   T   T
  0.6232115386381807  0.4197683751552219  0.0626642793341432   T   T   T
  0.6232113182908563  0.4197676564612323  0.5626608620804348   T   T   T
  0.1305230265865305  0.4259407255406629  0.3133062018614794   T   T   T
  0.1305248295578565  0.4259418787117824  0.8133060150985898   T   T   T
  0.6305206280141249  0.4259429593775508  0.3133068893734716   T   T   T
  0.6305241786190763  0.4259413202075493  0.8133060078465491   T   T   T
  0.1196983904921467  0.4262104788658689  0.1869235723943774   T   T   T
  0.1196973229844502  0.4262105246223200  0.6869232742931075   T   T   T
  0.6196984740952161  0.4262109471990598  0.1869259868993538   T   T   T
  0.6197000068384071  0.4262124343514344  0.6869217811994375   T   T   T
  0.1298777163080089  0.4258992430518092  0.4368689959710821   T   T   T
  0.1298735696303694  0.4258943385097851  0.9368695459050898   T   T   T
  0.6298716290777833  0.4258899174574609  0.4368689296236710   T   T   T
  0.6298733023524434  0.4258963907476740  0.9368700648648556   T   T   T
  0.3703052605179096  0.4256061137020524  0.0620121911442766   T   T   T
  0.3703113754116032  0.4255988676547702  0.5620099638863252   T   T   T
  0.8703014517547913  0.4256065481163276  0.0620107380388717   T   T   T
  0.8702974693252230  0.4256080200514276  0.5620103377282391   T   T   T
  0.3702326633260213  0.4168172772741059  0.3120219777112965   T   T   T
  0.3700475665983021  0.4170789924613700  0.8118816819034791   T   T   T
  0.8700442032605906  0.4170800660900298  0.3118827222941576   T   T   T
  0.8700460279982707  0.4170804343309129  0.8118823218239939   T   T   T
  0.3730556599560089  0.4232177046656886  0.1875834383151371   T   T   T
  0.3730597697779245  0.4232167684478441  0.6875791075732423   T   T   T
  0.8730473538281984  0.4232281203837687  0.1875810736515575   T   T   T
  0.8730481023964956  0.4232281023793618  0.6875803089991521   T   T   T
  0.3807711218435728  0.4267287097408499  0.4380847467260409   T   T   T
  0.3807642873560084  0.4267426001599546  0.9380956947275934   T   T   T
  0.8807594220864345  0.4267434814696074  0.4380947792748842   T   T   T
  0.8807641381004956  0.4267424294196971  0.9380958362769150   T   T   T
  0.1660958103184456  0.4451020114152939  0.1248201554019346   T   T   T
  0.1660950089975799  0.4450999421490067  0.6247988424897315   T   T   T
  0.6660903642166929  0.4451094952782029  0.1248420677491353   T   T   T
  0.6660929355264074  0.4451179369896821  0.6248223829777899   T   T   T
  0.1673158976016964  0.4533988215832494  0.3745197809272227   T   T   T
  0.1673152985557991  0.4533989130498881  0.8745219447043624   T   T   T
  0.6673128891041458  0.4534185785086038  0.3745182602137902   T   T   T
  0.6673143419184342  0.4533975657124216  0.8745212948042393   T   T   T
  0.1669392028203092  0.4265484785678382  0.2493000554293658   T   T   T
  0.1669382506550861  0.4265505535220484  0.7492993079472257   T   T   T
  0.6669353292995126  0.4265525204180634  0.2493012035715765   T   T   T
  0.6669376689185569  0.4265512473856603  0.7492979373502635   T   T   T
  0.1675318612843100  0.4264492017329502  0.0005791645497411   T   T   T
  0.1675248669787877  0.4264463169156443  0.5005811625220460   T   T   T
  0.6675338204399992  0.4264495754549529  0.0005789900898279   T   T   T
  0.6675342142610461  0.4264559225021927  0.5005746461557621   T   T   T
  0.4165385259890044  0.4256167618695059  0.1244388181679099   T   T   T
  0.4165410897649480  0.4256159177066650  0.6244386064301821   T   T   T
  0.9165373645275281  0.4256152025093911  0.1244376663290225   T   T   T
  0.9165360015721618  0.4256148475205563  0.6244356353605696   T   T   T
  0.4173172301605064  0.4256088892049377  0.3741367032070713   T   T   T
  0.4173636322155758  0.4259376561196433  0.8741857566801485   T   T   T
  0.9173634969768116  0.4259352517416488  0.3741861768342432   T   T   T
  0.9173635141015168  0.4259375692208778  0.8741856812694095   T   T   T
  0.4160746870981242  0.4439534821783369  0.2505953482443815   T   T   T
  0.4160472173671579  0.4439752194101416  0.7505867133378743   T   T   T
  0.9160476894947962  0.4439840002916782  0.2505874774430694   T   T   T
  0.9160509760220137  0.4439805401044410  0.7505857770792090   T   T   T
  0.4166161926878758  0.4532324554546463  0.0007665004618929   T   T   T
  0.4166214483106998  0.4532189840356722  0.5007621821328954   T   T   T
  0.9166154562782935  0.4532307656116217  0.0007662581198389   T   T   T
  0.9166118036605866  0.4532359697970136  0.5007647990763502   T   T   T
  0.9996264617332784  0.4446315101015941  0.1243143372797135   T   T   T
  0.9996238869553338  0.4446273179662157  0.6243143988316007   T   T   T
  0.4996283679624369  0.4446299751273770  0.1243161527124386   T   T   T
  0.4996359292170354  0.4446352265781712  0.6243122419996823   T   T   T
  0.0004515611816061  0.4450804685310814  0.3741465782510218   T   T   T
  0.0004486662388388  0.4450850113621883  0.8741450674370128   T   T   T
  0.5004322969571575  0.4450510656971005  0.3741301607620784   T   T   T
  0.5004512385746764  0.4450817364270492  0.8741446890898033   T   T   T
  0.0002900747065553  0.4262271007089424  0.2493145790848530   T   T   T
  0.0002920849840322  0.4262287688265403  0.7493155904373907   T   T   T
  0.5002991799475041  0.4262330751378940  0.2493161511749236   T   T   T
  0.5002897888705533  0.4262260558259499  0.7493143210583142   T   T   T
  0.0003765976291490  0.4350143928934642  0.9991280235211875   T   T   T
  0.0003763696832735  0.4350171746958225  0.4991284351177043   T   T   T
  0.5003777348543181  0.4350149111674853  0.9991291234880677   T   T   T
  0.5003785524901616  0.4350085168454143  0.4991230641628377   T   T   T
  0.2499541813087660  0.4348461100698771  0.1241989526681166   T   T   T
  0.2499540204030595  0.4348453727568682  0.6241987322771436   T   T   T
  0.7499537444912932  0.4348457855388617  0.1241986353501972   T   T   T
  0.7499539279786234  0.4348478320861062  0.6241983372003190   T   T   T
  0.2507274468056977  0.4348254726752856  0.3743189980610353   T   T   T
  0.2507230155927616  0.4348227814125920  0.8743215989188329   T   T   T
  0.7507220816308120  0.4348232093684388  0.3743211887167348   T   T   T
  0.7507229294376714  0.4348228973599007  0.8743218294926578   T   T   T
  0.2503429426962924  0.4526303566593413  0.2498448889684113   T   T   T
  0.2503268661538200  0.4527072046993723  0.7498217055999703   T   T   T
  0.7503321666704750  0.4527151426264027  0.2498328782891193   T   T   T
  0.7503269194087920  0.4527065108933712  0.7498082140263591   T   T   T
  0.2500843067771896  0.4532987409291849  0.9994414963284797   T   T   T
  0.2500756751027282  0.4532849522651858  0.4994454469755780   T   T   T
  0.7500850766827369  0.4532984558132611  0.9994419221306501   T   T   T
  0.7500906692892002  0.4533166924306826  0.4994397438481926   T   T   T
  0.4884062658619044  0.7228320093273197  0.4487834337804699   T   T   T
  0.4043761759709597  0.7422631281002552  0.4582855158543282   T   T   T
  0.5409463155369991  0.7394537206220022  0.5109734465199978   F   F   F
  0.3685403433742422  0.7030301604061719  0.5112599632632140   T   T   T
  0.6194222674368959  0.7051113602504202  0.5004457223726391   T   T   T
  0.3071533788480281  0.5281268691276111  0.4896248126267153   T   T   T
  0.3069237838385845  0.5283283596735444  0.9896715351098777   T   T   T
  0.8066878583950015  0.5284719727117206  0.4896550079644300   T   T   T
  0.8069188746961231  0.5283310659290805  0.9896720179876013   T   T   T
  0.1995149500774360  0.5354462927119599  0.4033799314979731   T   T   T
  0.1995144617785769  0.5354542118352796  0.9033863209327109   T   T   T
  0.6994711883179221  0.5353971785191476  0.4034034982937271   F   F   F
  0.6995145745683971  0.5354516542912577  0.9033876325843480   T   T   T
  0.2114263201228468  0.5297500850628083  0.1534803044687507   T   T   T
  0.2114228484576159  0.5297467202590411  0.6534875998993144   T   T   T
  0.7114247119042503  0.5297531217233598  0.1534814709187557   T   T   T
  0.7114254523639332  0.5297506068646669  0.6534766059994297   T   T   T
  0.4376955969276963  0.5261166705383857  0.2888161667270310   T   T   T
  0.4376939749254092  0.5261303529224790  0.7888128950587898   T   T   T
  0.9376934738194436  0.5261395743550636  0.2888137089319187   T   T   T
  0.9376966912612161  0.5261395988763056  0.7888131303477905   T   T   T
  0.4398084897557055  0.5279173872554495  0.0503572070055611   T   T   T
  0.4394918463106308  0.5276368885755147  0.5506294991509293   T   T   T
  0.9398204709709503  0.5279196250225908  0.0503470296501263   T   T   T
  0.9398447671569272  0.5279153329120660  0.5503396806476530   T   T   T
  0.3188979514728771  0.5252068923973070  0.2478199933407836   T   T   T
  0.3188615322560011  0.5252419084964757  0.7477424161973474   T   T   T
  0.8188256342047211  0.5252707925479640  0.2476570992045168   T   T   T
  0.8188558616329118  0.5252355938393123  0.7477317295215329   T   T   T
  0.0566465851952955  0.5262304226470818  0.3566983508961741   T   T   T
  0.0566472051346238  0.5262312873699457  0.8566992058506528   T   T   T
  0.5566532213264495  0.5262367292055572  0.3567322584968124   T   T   T
  0.5566464180496382  0.5262310981087239  0.8566979537634580   T   T   T
  0.0566866595623878  0.5252712674106874  0.1079998318898205   T   T   T
  0.0566860796291380  0.5252461084604576  0.6080519280194494   T   T   T
  0.5566866809819047  0.5252770164897598  0.1079919700733356   T   T   T
  0.5566014296130390  0.5255905947481239  0.6079193885846195   T   T   T
  0.4960911884986956  0.6735579207653615  0.4396607744933405   T   T   T
  0.5118539515650156  0.7500750195855161  0.4080498396668659   T   T   T
  0.3721579313870365  0.7386254556188234  0.4091216366600605   T   T   T
  0.5477098707859227  0.7883528502963557  0.5175163254209423   T   T   T
  0.5148594167426808  0.7205668269517957  0.5596640657355181   T   T   T
  0.4046085167244016  0.8148266496168475  0.5294346489019688   T   T   T
  0.3362810535524119  0.8224581491005054  0.4712733220498748   T   T   T
  0.6697933484453245  0.7849930789115263  0.5492085889181908   T   T   T
  0.7350233666416059  0.7238464464827175  0.5323988040328729   T   T   T
  0.3244508049337043  0.6226771881137054  0.5284968092722551   T   T   T
  0.3929504097953753  0.8100995976882999  0.4800047729193579   T   T   T
  0.6787658526865101  0.7402768663630752  0.5316353250389767   T   T   T
  0.2500595753286561  0.5190981771608989  0.4893624153921721   T   T   T
  0.2500485506295718  0.5190927723931651  0.9893466157232353   T   T   T
  0.7500363867051689  0.5190819232800621  0.4893512803869768   T   T   T
  0.7500486356029370  0.5190928478621615  0.9893459384863874   T   T   T
  0.1666648579320622  0.5191103352969151  0.3650365615492888   T   T   T
  0.1666643741098426  0.5191103833371358  0.8650353733082952   T   T   T
  0.6666655095012288  0.5191024317032173  0.3650111198525607   T   T   T
  0.6666645376982601  0.5191104211626509  0.8650356746969479   T   T   T
  0.1666251984918645  0.5180630854046981  0.1247670061467474   T   T   T
  0.1666268746698591  0.5180657791267649  0.6247637509374186   T   T   T
  0.6666255848278198  0.5180627473543069  0.1247653487233649   T   T   T
  0.6666261735375301  0.5180616167810754  0.6247722463728067   T   T   T
  0.4049559481227405  0.5098616172256953  0.2503393213662761   T   T   T
  0.4049589393819915  0.5098648987696990  0.7503318655680431   T   T   T
  0.9049620924574171  0.5098652385671514  0.2503316135900775   T   T   T
  0.9049627656167942  0.5098622657507619  0.7503316381894223   T   T   T
  0.4048881004855858  0.5191194908115548  0.0102496665583729   T   T   T
  0.4048682600664080  0.5190737792081634  0.5102491477507698   T   T   T
  0.9048885838619043  0.5191197408665005  0.0102496998927961   T   T   T
  0.9048968795833119  0.5191179211756776  0.5102594756957828   T   T   T
  0.2617046028727543  0.5190497524828999  0.2496429674617247   T   T   T
  0.2617038740776181  0.5190515506718043  0.7496411052800696   T   T   T
  0.7617068416091328  0.5190524226631084  0.2496388630248845   T   T   T
  0.7617926926900651  0.5190451046732178  0.7496597676458521   T   T   T
  0.0000698262784553  0.5180381554395765  0.3642800902774397   T   T   T
  0.0000695120775092  0.5180381819071513  0.8642794673093732   T   T   T
  0.5000638247151485  0.5180286674572727  0.3642783217290031   T   T   T
  0.5000706037699416  0.5180357632033648  0.8642799054947687   T   T   T
  0.0001738763590780  0.5099351542473016  0.1142761804284902   T   T   T
  0.0001715300399923  0.5099463934727311  0.6142789335237069   T   T   T
  0.5001735497145816  0.5099339683187054  0.1142732886170208   T   T   T
  0.5001463670351498  0.5099977106751723  0.6142738161251557   T   T   T
  0.3449066482433381  0.3698337949170210  0.4383581427904488   T   T   T
  0.3449259577880852  0.3698265486319769  0.9382970780053057   T   T   T
  0.8449282878599362  0.3698255884893342  0.4382943637295682   T   T   T
  0.8449261895024947  0.3698266316548029  0.9382973034558191   T   T   T
  0.3332615106525196  0.3656839274928672  0.1884003169022037   T   T   T
  0.3332588111943480  0.3656944571296492  0.6884029789123147   T   T   T
  0.8332609065969621  0.3656835114402810  0.1883966723678654   T   T   T
  0.8332606688429536  0.3656832788403008  0.6883953050687737   T   T   T
  0.1666605467681350  0.3698564298611444  0.4682057557379622   T   T   T
  0.1666600894736732  0.3698565099816733  0.9682055605001736   T   T   T
  0.6666608590327670  0.3698560984081922  0.4682061365802355   T   T   T
  0.6666600586790423  0.3698565684267408  0.9682054204627448   T   T   T
  0.0952358231303165  0.3656451939068930  0.3238060759781973   T   T   T
  0.0952352725937757  0.3656482022040066  0.8237961990718361   T   T   T
  0.5952621934748308  0.3656713389328559  0.3238301398704309   T   T   T
  0.5952355853530520  0.3656447895013315  0.8238079892827272   T   T   T
  0.0833115235680921  0.3615348614951230  0.0629433891445004   T   T   T
  0.0833111815819052  0.3615377661191701  0.5629403194242855   T   T   T
  0.5833115193037486  0.3615339110589915  0.0629433932536045   T   T   T
  0.5833115951442025  0.3615354116558152  0.5629437561618076   T   T   T
  0.4047965352347731  0.3657603880161204  0.0928615504613006   T   T   T
  0.4047951371630774  0.3657727021426638  0.5928896448757399   T   T   T
  0.9047954424964431  0.3657721650083232  0.0928888447099041   T   T   T
  0.9048001264185075  0.3657939561163346  0.5928509629497825   T   T   T
  0.4049226220070992  0.3615609684134995  0.3433277703435422   T   T   T
  0.4056427544676851  0.3650374255134992  0.8430257938482697   T   T   T
  0.9056600007519933  0.3650461832188725  0.3430130132516993   T   T   T
  0.9056419871184289  0.3650333694678665  0.8430097202650586   T   T   T
  0.1431248617358065  0.3698372984477558  0.2182826740812374   T   T   T
  0.1431263085823886  0.3698380663033518  0.7182820586714982   T   T   T
  0.6431268897156599  0.3698380032278479  0.2182815267966305   T   T   T
  0.6431248536855279  0.3698374304603433  0.7182836812821165   T   T   T
  0.3452767271250607  0.6435977051597845  0.4886964083262200   T   T   T
  0.3572448924248661  0.7134331152121050  0.5724479188670841   T   T   T
  0.6309459233746537  0.6568932901893163  0.4690738470137106   T   T   T
 
  0.00000000E+00  0.00000000E+00  0.00000000E+00
  0.00000000E+00  0.00000000E+00  0.00000000E+00
  0.00000000E+00  0.00000000E+00  0.00000000E+00
  0.00000000E+00  0.00000000E+00  0.00000000E+00
  0.00000000E+00  0.00000000E+00  0.00000000E+00
  0.00000000E+00  0.00000000E+00  0.00000000E+00
  0.00000000E+00  0.00000000E+00  0.00000000E+00
  0.00000000E+00  0.00000000E+00  0.00000000E+00
  0.00000000E+00  0.00000000E+00  0.00000000E+00
  0.00000000E+00  0.00000000E+00  0.00000000E+00
  0.00000000E+00  0.00000000E+00  0.00000000E+00
  0.00000000E+00  0.00000000E+00  0.00000000E+00
  0.00000000E+00  0.00000000E+00  0.00000000E+00
  0.00000000E+00  0.00000000E+00  0.00000000E+00
  0.00000000E+00  0.00000000E+00  0.00000000E+00
  0.00000000E+00  0.00000000E+00  0.00000000E+00
  0.00000000E+00  0.00000000E+00  0.00000000E+00
  0.00000000E+00  0.00000000E+00  0.00000000E+00
  0.00000000E+00  0.00000000E+00  0.00000000E+00
  0.00000000E+00  0.00000000E+00  0.00000000E+00
  0.00000000E+00  0.00000000E+00  0.00000000E+00
  0.00000000E+00  0.00000000E+00  0.00000000E+00
  0.00000000E+00  0.00000000E+00  0.00000000E+00
  0.00000000E+00  0.00000000E+00  0.00000000E+00
  0.00000000E+00  0.00000000E+00  0.00000000E+00
  0.00000000E+00  0.00000000E+00  0.00000000E+00
  0.00000000E+00  0.00000000E+00  0.00000000E+00
  0.00000000E+00  0.00000000E+00  0.00000000E+00
  0.00000000E+00  0.00000000E+00  0.00000000E+00
  0.00000000E+00  0.00000000E+00  0.00000000E+00
  0.00000000E+00  0.00000000E+00  0.00000000E+00
  0.00000000E+00  0.00000000E+00  0.00000000E+00
  0.00000000E+00  0.00000000E+00  0.00000000E+00
  0.00000000E+00  0.00000000E+00  0.00000000E+00
  0.00000000E+00  0.00000000E+00  0.00000000E+00
  0.00000000E+00  0.00000000E+00  0.00000000E+00
  0.00000000E+00  0.00000000E+00  0.00000000E+00
  0.00000000E+00  0.00000000E+00  0.00000000E+00
  0.00000000E+00  0.00000000E+00  0.00000000E+00
  0.00000000E+00  0.00000000E+00  0.00000000E+00
  0.00000000E+00  0.00000000E+00  0.00000000E+00
  0.00000000E+00  0.00000000E+00  0.00000000E+00
  0.00000000E+00  0.00000000E+00  0.00000000E+00
  0.00000000E+00  0.00000000E+00  0.00000000E+00
  0.00000000E+00  0.00000000E+00  0.00000000E+00
  0.00000000E+00  0.00000000E+00  0.00000000E+00
  0.00000000E+00  0.00000000E+00  0.00000000E+00
  0.00000000E+00  0.00000000E+00  0.00000000E+00
  0.00000000E+00  0.00000000E+00  0.00000000E+00
  0.00000000E+00  0.00000000E+00  0.00000000E+00
  0.00000000E+00  0.00000000E+00  0.00000000E+00
  0.00000000E+00  0.00000000E+00  0.00000000E+00
  0.00000000E+00  0.00000000E+00  0.00000000E+00
  0.00000000E+00  0.00000000E+00  0.00000000E+00
  0.00000000E+00  0.00000000E+00  0.00000000E+00
  0.00000000E+00  0.00000000E+00  0.00000000E+00
  0.00000000E+00  0.00000000E+00  0.00000000E+00
  0.00000000E+00  0.00000000E+00  0.00000000E+00
  0.00000000E+00  0.00000000E+00  0.00000000E+00
  0.00000000E+00  0.00000000E+00  0.00000000E+00
  0.00000000E+00  0.00000000E+00  0.00000000E+00
  0.00000000E+00  0.00000000E+00  0.00000000E+00
  0.00000000E+00  0.00000000E+00  0.00000000E+00
  0.00000000E+00  0.00000000E+00  0.00000000E+00
  0.00000000E+00  0.00000000E+00  0.00000000E+00
  0.00000000E+00  0.00000000E+00  0.00000000E+00
  0.00000000E+00  0.00000000E+00  0.00000000E+00
  0.00000000E+00  0.00000000E+00  0.00000000E+00
  0.00000000E+00  0.00000000E+00  0.00000000E+00
  0.00000000E+00  0.00000000E+00  0.00000000E+00
  0.00000000E+00  0.00000000E+00  0.00000000E+00
  0.00000000E+00  0.00000000E+00  0.00000000E+00
  0.00000000E+00  0.00000000E+00  0.00000000E+00
  0.00000000E+00  0.00000000E+00  0.00000000E+00
  0.00000000E+00  0.00000000E+00  0.00000000E+00
  0.00000000E+00  0.00000000E+00  0.00000000E+00
  0.00000000E+00  0.00000000E+00  0.00000000E+00
  0.00000000E+00  0.00000000E+00  0.00000000E+00
  0.00000000E+00  0.00000000E+00  0.00000000E+00
  0.00000000E+00  0.00000000E+00  0.00000000E+00
  0.00000000E+00  0.00000000E+00  0.00000000E+00
  0.00000000E+00  0.00000000E+00  0.00000000E+00
  0.00000000E+00  0.00000000E+00  0.00000000E+00
  0.00000000E+00  0.00000000E+00  0.00000000E+00
  0.00000000E+00  0.00000000E+00  0.00000000E+00
  0.00000000E+00  0.00000000E+00  0.00000000E+00
  0.00000000E+00  0.00000000E+00  0.00000000E+00
  0.00000000E+00  0.00000000E+00  0.00000000E+00
  0.00000000E+00  0.00000000E+00  0.00000000E+00
  0.00000000E+00  0.00000000E+00  0.00000000E+00
  0.00000000E+00  0.00000000E+00  0.00000000E+00
  0.00000000E+00  0.00000000E+00  0.00000000E+00
  0.00000000E+00  0.00000000E+00  0.00000000E+00
  0.00000000E+00  0.00000000E+00  0.00000000E+00
  0.00000000E+00  0.00000000E+00  0.00000000E+00
  0.00000000E+00  0.00000000E+00  0.00000000E+00
  0.00000000E+00  0.00000000E+00  0.00000000E+00
  0.00000000E+00  0.00000000E+00  0.00000000E+00
  0.00000000E+00  0.00000000E+00  0.00000000E+00
  0.00000000E+00  0.00000000E+00  0.00000000E+00
  0.00000000E+00  0.00000000E+00  0.00000000E+00
  0.00000000E+00  0.00000000E+00  0.00000000E+00
  0.00000000E+00  0.00000000E+00  0.00000000E+00
  0.00000000E+00  0.00000000E+00  0.00000000E+00
  0.00000000E+00  0.00000000E+00  0.00000000E+00
  0.00000000E+00  0.00000000E+00  0.00000000E+00
  0.00000000E+00  0.00000000E+00  0.00000000E+00
  0.00000000E+00  0.00000000E+00  0.00000000E+00
  0.00000000E+00  0.00000000E+00  0.00000000E+00
  0.00000000E+00  0.00000000E+00  0.00000000E+00
  0.00000000E+00  0.00000000E+00  0.00000000E+00
  0.00000000E+00  0.00000000E+00  0.00000000E+00
  0.00000000E+00  0.00000000E+00  0.00000000E+00
  0.00000000E+00  0.00000000E+00  0.00000000E+00
  0.00000000E+00  0.00000000E+00  0.00000000E+00
  0.00000000E+00  0.00000000E+00  0.00000000E+00
  0.00000000E+00  0.00000000E+00  0.00000000E+00
  0.00000000E+00  0.00000000E+00  0.00000000E+00
  0.00000000E+00  0.00000000E+00  0.00000000E+00
  0.00000000E+00  0.00000000E+00  0.00000000E+00
  0.00000000E+00  0.00000000E+00  0.00000000E+00
  0.00000000E+00  0.00000000E+00  0.00000000E+00
  0.00000000E+00  0.00000000E+00  0.00000000E+00
  0.00000000E+00  0.00000000E+00  0.00000000E+00
  0.00000000E+00  0.00000000E+00  0.00000000E+00
  0.00000000E+00  0.00000000E+00  0.00000000E+00
  0.00000000E+00  0.00000000E+00  0.00000000E+00
  0.00000000E+00  0.00000000E+00  0.00000000E+00
  0.00000000E+00  0.00000000E+00  0.00000000E+00
  0.00000000E+00  0.00000000E+00  0.00000000E+00
  0.00000000E+00  0.00000000E+00  0.00000000E+00
  0.00000000E+00  0.00000000E+00  0.00000000E+00
  0.00000000E+00  0.00000000E+00  0.00000000E+00
  0.00000000E+00  0.00000000E+00  0.00000000E+00
  0.00000000E+00  0.00000000E+00  0.00000000E+00
  0.00000000E+00  0.00000000E+00  0.00000000E+00
  0.00000000E+00  0.00000000E+00  0.00000000E+00
  0.00000000E+00  0.00000000E+00  0.00000000E+00
  0.00000000E+00  0.00000000E+00  0.00000000E+00
  0.00000000E+00  0.00000000E+00  0.00000000E+00
  0.00000000E+00  0.00000000E+00  0.00000000E+00
  0.00000000E+00  0.00000000E+00  0.00000000E+00
  0.00000000E+00  0.00000000E+00  0.00000000E+00
  0.00000000E+00  0.00000000E+00  0.00000000E+00
  0.00000000E+00  0.00000000E+00  0.00000000E+00
  0.00000000E+00  0.00000000E+00  0.00000000E+00
  0.00000000E+00  0.00000000E+00  0.00000000E+00
  0.00000000E+00  0.00000000E+00  0.00000000E+00
  0.00000000E+00  0.00000000E+00  0.00000000E+00
  0.00000000E+00  0.00000000E+00  0.00000000E+00
  0.00000000E+00  0.00000000E+00  0.00000000E+00
  0.00000000E+00  0.00000000E+00  0.00000000E+00
  0.00000000E+00  0.00000000E+00  0.00000000E+00
  0.00000000E+00  0.00000000E+00  0.00000000E+00
  0.00000000E+00  0.00000000E+00  0.00000000E+00
  0.00000000E+00  0.00000000E+00  0.00000000E+00
  0.00000000E+00  0.00000000E+00  0.00000000E+00
  0.00000000E+00  0.00000000E+00  0.00000000E+00
  0.00000000E+00  0.00000000E+00  0.00000000E+00
  0.00000000E+00  0.00000000E+00  0.00000000E+00
  0.00000000E+00  0.00000000E+00  0.00000000E+00
  0.00000000E+00  0.00000000E+00  0.00000000E+00
  0.00000000E+00  0.00000000E+00  0.00000000E+00
  0.00000000E+00  0.00000000E+00  0.00000000E+00
  0.00000000E+00  0.00000000E+00  0.00000000E+00
  0.00000000E+00  0.00000000E+00  0.00000000E+00
  0.00000000E+00  0.00000000E+00  0.00000000E+00
  0.00000000E+00  0.00000000E+00  0.00000000E+00
  0.00000000E+00  0.00000000E+00  0.00000000E+00
  0.00000000E+00  0.00000000E+00  0.00000000E+00
  0.00000000E+00  0.00000000E+00  0.00000000E+00
  0.00000000E+00  0.00000000E+00  0.00000000E+00
  0.00000000E+00  0.00000000E+00  0.00000000E+00
  0.00000000E+00  0.00000000E+00  0.00000000E+00
  0.00000000E+00  0.00000000E+00  0.00000000E+00
  0.00000000E+00  0.00000000E+00  0.00000000E+00
  0.00000000E+00  0.00000000E+00  0.00000000E+00
  0.00000000E+00  0.00000000E+00  0.00000000E+00
  0.00000000E+00  0.00000000E+00  0.00000000E+00
  0.00000000E+00  0.00000000E+00  0.00000000E+00
  0.00000000E+00  0.00000000E+00  0.00000000E+00
  0.00000000E+00  0.00000000E+00  0.00000000E+00
  0.00000000E+00  0.00000000E+00  0.00000000E+00
  0.00000000E+00  0.00000000E+00  0.00000000E+00
  0.00000000E+00  0.00000000E+00  0.00000000E+00
  0.00000000E+00  0.00000000E+00  0.00000000E+00
  0.00000000E+00  0.00000000E+00  0.00000000E+00
  0.00000000E+00  0.00000000E+00  0.00000000E+00
  0.00000000E+00  0.00000000E+00  0.00000000E+00
  0.00000000E+00  0.00000000E+00  0.00000000E+00
  0.00000000E+00  0.00000000E+00  0.00000000E+00
  0.00000000E+00  0.00000000E+00  0.00000000E+00
  0.00000000E+00  0.00000000E+00  0.00000000E+00
  0.00000000E+00  0.00000000E+00  0.00000000E+00
  0.00000000E+00  0.00000000E+00  0.00000000E+00
  0.00000000E+00  0.00000000E+00  0.00000000E+00
  0.00000000E+00  0.00000000E+00  0.00000000E+00
  0.00000000E+00  0.00000000E+00  0.00000000E+00
  0.00000000E+00  0.00000000E+00  0.00000000E+00
  0.00000000E+00  0.00000000E+00  0.00000000E+00
  0.00000000E+00  0.00000000E+00  0.00000000E+00
  0.00000000E+00  0.00000000E+00  0.00000000E+00
  0.00000000E+00  0.00000000E+00  0.00000000E+00
  0.00000000E+00  0.00000000E+00  0.00000000E+00
  0.00000000E+00  0.00000000E+00  0.00000000E+00
  0.00000000E+00  0.00000000E+00  0.00000000E+00
  0.00000000E+00  0.00000000E+00  0.00000000E+00
  0.00000000E+00  0.00000000E+00  0.00000000E+00
  0.00000000E+00  0.00000000E+00  0.00000000E+00
  0.00000000E+00  0.00000000E+00  0.00000000E+00
  0.00000000E+00  0.00000000E+00  0.00000000E+00
  0.00000000E+00  0.00000000E+00  0.00000000E+00
  0.00000000E+00  0.00000000E+00  0.00000000E+00
  0.00000000E+00  0.00000000E+00  0.00000000E+00
  0.00000000E+00  0.00000000E+00  0.00000000E+00
  0.00000000E+00  0.00000000E+00  0.00000000E+00
  0.00000000E+00  0.00000000E+00  0.00000000E+00
  0.00000000E+00  0.00000000E+00  0.00000000E+00
  0.00000000E+00  0.00000000E+00  0.00000000E+00
  0.00000000E+00  0.00000000E+00  0.00000000E+00
  0.00000000E+00  0.00000000E+00  0.00000000E+00
  0.00000000E+00  0.00000000E+00  0.00000000E+00
  0.00000000E+00  0.00000000E+00  0.00000000E+00
  0.00000000E+00  0.00000000E+00  0.00000000E+00
  0.00000000E+00  0.00000000E+00  0.00000000E+00
  0.00000000E+00  0.00000000E+00  0.00000000E+00
  0.00000000E+00  0.00000000E+00  0.00000000E+00
  0.00000000E+00  0.00000000E+00  0.00000000E+00
  0.00000000E+00  0.00000000E+00  0.00000000E+00
  0.00000000E+00  0.00000000E+00  0.00000000E+00
  0.00000000E+00  0.00000000E+00  0.00000000E+00
  0.00000000E+00  0.00000000E+00  0.00000000E+00
  0.00000000E+00  0.00000000E+00  0.00000000E+00
  0.00000000E+00  0.00000000E+00  0.00000000E+00
  0.00000000E+00  0.00000000E+00  0.00000000E+00
  0.00000000E+00  0.00000000E+00  0.00000000E+00
  0.00000000E+00  0.00000000E+00  0.00000000E+00
  0.00000000E+00  0.00000000E+00  0.00000000E+00
  0.00000000E+00  0.00000000E+00  0.00000000E+00
  0.00000000E+00  0.00000000E+00  0.00000000E+00
  0.00000000E+00  0.00000000E+00  0.00000000E+00