C H N O                                 
   1.00000000000000     
    17.0814999999999984    0.0000000000000000    0.0000000000000000
     0.0000000000000000   21.3509999999999991    0.0000000000000000
     0.0000000000000000    0.0000000000000000   19.7240000000000002
   C    H    N    O 
     5     9     1     4
Selective dynamics
Direct
  0.4866645192330026  0.1621985176060008  0.6357390414890034   F   F   F
  0.5718663791625858  0.1759184037117620  0.6151075530511818   T   T   T
  0.4406135609747892  0.1382994205115722  0.5738647100104899   T   T   T
  0.6194704159353961  0.1203940867222926  0.5926494785434855   T   T   T
  0.3561313089632776  0.1384028638209216  0.5828631097589749   T   T   T
  0.4603880168201684  0.2091322197052747  0.6490195909746177   T   T   T
  0.4844701921436965  0.1351223595856652  0.6847139732236585   T   T   T
  0.6035474791343844  0.1857049236428026  0.6639110539794686   T   T   T
  0.4537200933503058  0.1665003095075051  0.5321548505943099   T   T   T
  0.4610025574560623  0.0913267601193937  0.5629725771465033   T   T   T
  0.6292930017324565  0.2196736681972098  0.5338182240727178   T   T   T
  0.5737422239082903  0.2669911829162217  0.5804342216542651   T   T   T
  0.6393169763816360  0.0383774744466265  0.6185406620329914   T   T   T
  0.2566388165327496  0.1064538680953220  0.5564875694596978   T   T   T
  0.5828875897191423  0.2228525773500962  0.5631710386707454   T   T   T
  0.6072047162535341  0.0735084060856295  0.6351308682766472   T   T   T
  0.3096648408169003  0.1013415571920433  0.5414404500968217   T   T   T
  0.6663979011974632  0.1198658859617510  0.5423007100239801   T   T   T
  0.3214188827284019  0.1671677698760945  0.6253450362244450   T   T   T
 
  


