C H N O                                 
   1.00000000000000     
    17.0814999999999984    0.0000000000000000    0.0000000000000000
     0.0000000000000000   21.3509999999999991    0.0000000000000000
     0.0000000000000000    0.0000000000000000   19.7240000000000002
   C    H    N    O 
   133    41     1    68
Selective dynamics
Direct
  0.0361367058670439  0.4630409517458105  0.0620788621745376   T   T   T
  0.0361867939811518  0.4630411609824634  0.5620753142760009   T   T   T
  0.5361269872632235  0.4630366442702396  0.0620815459885620   T   T   T
  0.5359575604638991  0.4630424474676005  0.5620933705156688   T   T   T
  0.0458620080160728  0.4632808202522867  0.3127644034997275   T   T   T
  0.0458634419510986  0.4632801428622741  0.8127647265081919   T   T   T
  0.5458625184277679  0.4632813781348943  0.3127623079989590   T   T   T
  0.5458639899366275  0.4632807567931678  0.8127624160428297   T   T   T
  0.0358742187710206  0.4807453702416851  0.1884189999675883   T   T   T
  0.0358744422840260  0.4807435271917058  0.6884190517065889   T   T   T
  0.5358733336703096  0.4807459106665277  0.1884190959485679   T   T   T
  0.5358714074839952  0.4807438776361792  0.6884194471206442   T   T   T
  0.0367401622981873  0.4809061490203561  0.4382966104993002   T   T   T
  0.0367391251503832  0.4809066610732273  0.9382973682598958   T   T   T
  0.5367329260445217  0.4809141774019707  0.4383027414249199   T   T   T
  0.5367401733268764  0.4809063565224534  0.9382971280531081   T   T   T
  0.2860861028524866  0.4812271966739630  0.0632823697153242   T   T   T
  0.2860853274369006  0.4812263195747661  0.5632820957745537   T   T   T
  0.7860859498938026  0.4812267112974524  0.0632826827531545   T   T   T
  0.7860839272456488  0.4812268495019936  0.5632828714562592   T   T   T
  0.2857169888514619  0.4723911109378918  0.3131864713928678   T   T   T
  0.2857140837546837  0.4723920304248850  0.8131858080089458   T   T   T
  0.7857222617385204  0.4723879081973479  0.3131868692250421   T   T   T
  0.7857218192408126  0.4723866679589364  0.8131867196205249   T   T   T
  0.2862060083825497  0.4717643458770766  0.1879291520085644   T   T   T
  0.2862086508747481  0.4717626012509086  0.6879307143414763   T   T   T
  0.7862082471048382  0.4717604614515594  0.1879275561869562   T   T   T
  0.7862040939643578  0.4717634064686465  0.6879285063256759   T   T   T
  0.2957723108399506  0.4719884119324433  0.4374336237695857   T   T   T
  0.2957724469867813  0.4719888020376786  0.9374334370308119   T   T   T
  0.7957705930801069  0.4719877787295843  0.4374320106485783   T   T   T
  0.7957717094699674  0.4719890588347297  0.9374338416559311   T   T   T
  0.1210766096955567  0.4699221305322254  0.0627364199132359   T   T   T
  0.1216356142012245  0.4696966382122127  0.5626779716781058   T   T   T
  0.6210211115997453  0.4699399079802618  0.0627444577561604   T   T   T
  0.6194469941988530  0.4707122074489973  0.5628788587493290   T   T   T
  0.1303293581427809  0.4719798314086177  0.3133063704247547   T   T   T
  0.1303294166987854  0.4719785738907376  0.8133064200586162   T   T   T
  0.6303301032649955  0.4719829003712164  0.3133050256307257   T   T   T
  0.6303299173420456  0.4719823255495541  0.8133045496257907   T   T   T
  0.1194262672697590  0.4722237059253374  0.1869327339900622   T   T   T
  0.1194269755790671  0.4722235020863366  0.6869318359707108   T   T   T
  0.6194243636918770  0.4722219444521798  0.1869345839225289   T   T   T
  0.6194247281556926  0.4722249413101238  0.6869403996464882   T   T   T
  0.1288089641944836  0.4721131994780237  0.4371060043377284   T   T   T
  0.1288134949625999  0.4721137344562365  0.9371053596549075   T   T   T
  0.6288111642240963  0.4721174176575644  0.4371033088990899   T   T   T
  0.6288125647567426  0.4721172429210156  0.9371057244011496   T   T   T
  0.3699509289853893  0.4717459289003756  0.0619442950042099   T   T   T
  0.3699512034331320  0.4717429246764056  0.5619430817411128   T   T   T
  0.8699531031605687  0.4717419609231399  0.0619448738708570   T   T   T
  0.8699542971345124  0.4717515307778228  0.5619414106013778   T   T   T
  0.3696964514545300  0.4632332427223744  0.3118357428206693   T   T   T
  0.3696912171112956  0.4632323245855616  0.8118357356403010   T   T   T
  0.8697026168483504  0.4632326674733847  0.3118354152212888   T   T   T
  0.8697031058971589  0.4632331599104305  0.8118351175072505   T   T   T
  0.3703013198145371  0.4714826988593686  0.1875542913110948   T   T   T
  0.3702976977267411  0.4714797627405076  0.6875548411478434   T   T   T
  0.8703020626396309  0.4714825614324099  0.1875548558101841   T   T   T
  0.8703043132304558  0.4714863082521603  0.6875537189033665   T   T   T
  0.3805579532306496  0.4728316959100667  0.4380837165388982   T   T   T
  0.3805602382286608  0.4728319313565024  0.9380854200813644   T   T   T
  0.8805609396605405  0.4728319588953767  0.4380856991187372   T   T   T
  0.8805609822293619  0.4728317769050960  0.9380849718171049   T   T   T
  0.1656845618354268  0.4914467179941653  0.1250235022249626   T   T   T
  0.1657230872694271  0.4914546529019290  0.6250468671752927   T   T   T
  0.6656792696094129  0.4914369727950643  0.1250226434797099   T   T   T
  0.6655820537967188  0.4914393882770653  0.6249929777934327   T   T   T
  0.1670052422087451  0.4994890784491375  0.3745660724756945   T   T   T
  0.1670051529735446  0.4994881327375040  0.8745652728149977   T   T   T
  0.6670012330934583  0.4994839806624825  0.3745600305848669   T   T   T
  0.6670013709937876  0.4994856580527482  0.8745649754411176   T   T   T
  0.1666810700048771  0.4726532399640462  0.2493367670604059   T   T   T
  0.1666810308209250  0.4726517929333340  0.7493371951169294   T   T   T
  0.6666812123273260  0.4726491143680178  0.2493357721530813   T   T   T
  0.6666818125138505  0.4726511909157196  0.7493353549717341   T   T   T
  0.1671793489321800  0.4726853613053237  0.0005999562038923   T   T   T
  0.1672082392746788  0.4726800538311977  0.5005903580132838   T   T   T
  0.6671764645557872  0.4726857425002606  0.0006014413435551   T   T   T
  0.6670870168836416  0.4726924458822666  0.5006393238404456   T   T   T
  0.4161269298412194  0.4717687525375425  0.1244821018778453   T   T   T
  0.4161170527332558  0.4717652361889364  0.6244887629184177   T   T   T
  0.9161261958402775  0.4717669356731093  0.1244832768174646   T   T   T
  0.9161254853133940  0.4717661956598178  0.6244834178712679   T   T   T
  0.4171386809575495  0.4720303800110131  0.3741509315546381   T   T   T
  0.4171367316168215  0.4720320920151195  0.8741501216811045   T   T   T
  0.9171404162252657  0.4720309715618072  0.3741507812843210   T   T   T
  0.9171401849377645  0.4720310338247629  0.8741510393384431   T   T   T
  0.4154095644721991  0.4900911031031399  0.2503755521830300   T   T   T
  0.4153950622649276  0.4900906136930416  0.7503698312985847   T   T   T
  0.9154052355201898  0.4900939680709726  0.2503763579132539   T   T   T
  0.9154160749710982  0.4900926922436781  0.7503801612837506   T   T   T
  0.4163019144331628  0.4993443896345013  0.0007771304846500   T   T   T
  0.4162977335811391  0.4993404455655863  0.5007741769355576   T   T   T
  0.9163033237238238  0.4993425713122761  0.0007773989193041   T   T   T
  0.9163052884896459  0.4993429634469209  0.5007773871097925   T   T   T
  0.9993095207281684  0.4906772228742398  0.1243717215398163   T   T   T
  0.9993302048396160  0.4906792378773517  0.6243687449776800   T   T   T
  0.4993135621080853  0.4906785829579761  0.1243703997280221   T   T   T
  0.4992552899570057  0.4906496216079574  0.6243844650775401   T   T   T
  0.0000698572466433  0.4912791549367483  0.3740537674736046   T   T   T
  0.0000702992233883  0.4912789856143505  0.8740534813812175   T   T   T
  0.5000647224578216  0.4912900269592413  0.3740538357508640   T   T   T
  0.5000684187272171  0.4912795189683337  0.8740541186985240   T   T   T
  0.9999799706799593  0.4722465154108733  0.2493171925466058   T   T   T
  0.9999809161105304  0.4722468481743434  0.7493181199111234   T   T   T
  0.4999800911407988  0.4722470134683689  0.2493170785562882   T   T   T
  0.4999777787196393  0.4722463643918786  0.7493180548603036   T   T   T
  0.9997868265443728  0.4811965407596333  0.9992540161865548   T   T   T
  0.9997963158637901  0.4811969255126840  0.4992582910670365   T   T   T
  0.4997854963797366  0.4811970355636390  0.9992540928352227   T   T   T
  0.4997572483642543  0.4811961822395858  0.4992433407621775   T   T   T
  0.2496706660998385  0.4808948101600237  0.1241945762842249   T   T   T
  0.2496799194331345  0.4808969555051164  0.6241980779548157   T   T   T
  0.7496698733899052  0.4808953584227780  0.1241943822648537   T   T   T
  0.7496511328176467  0.4808892362024650  0.6241840375060832   T   T   T
  0.2504531415057798  0.4808880143302900  0.3743305874804221   T   T   T
  0.2504537102281006  0.4808883037379275  0.8743306806508997   T   T   T
  0.7504510841732426  0.4808903354891001  0.3743299343680420   T   T   T
  0.7504512073945122  0.4808900103300218  0.8743301915016417   T   T   T
  0.2499860928018904  0.4985030769314278  0.2499655503251503   T   T   T
  0.2499824935943877  0.4985058072916857  0.7499695508255186   T   T   T
  0.7500046842889319  0.4984928863927323  0.2499538937358068   T   T   T
  0.7500092278045756  0.4985002584539089  0.7499620975780630   T   T   T
  0.2498422864633056  0.4993871787278792  0.9994203580794121   T   T   T
  0.2498446224197721  0.4993840529250306  0.4994167291292300   T   T   T
  0.7498421994367348  0.4993863697329601  0.9994205453807794   T   T   T
  0.7498262244000031  0.4993851958662390  0.4994283638143671   T   T   T
  0.4866645192330026  0.1621985176060008  0.6357390414890034   F   F   F
  0.5718663791625858  0.1759184037117620  0.6151075530511818   T   T   T
  0.4406135609747892  0.1382994205115722  0.5738647100104899   T   T   T
  0.6194704159353961  0.1203940867222926  0.5926494785434855   T   T   T
  0.3561313089632776  0.1384028638209216  0.5828631097589749   T   T   T
  0.3065815398789198  0.5747188582405727  0.4896514386376509   T   T   T
  0.3066170047233925  0.5746915475293477  0.9896683994141569   T   T   T
  0.8066328463568553  0.5746811804804608  0.4896691116951857   T   T   T
  0.8066249041663838  0.5746866241289368  0.9896690923532105   T   T   T
  0.1991195181943084  0.5810141631804626  0.4034362555747606   T   T   T
  0.1991290719134327  0.5810145785843730  0.9034356103659533   T   T   T
  0.6991599258209504  0.5810143343348102  0.4034332888430967   T   T   T
  0.6991649475811172  0.5810151018176697  0.9034333232955234   T   T   T
  0.2113701022954046  0.5757426023398509  0.1536963521052073   T   T   T
  0.2113664413381571  0.5757418681290787  0.6536948738932082   T   T   T
  0.7113688547024353  0.5757431161556923  0.1537017097533351   T   T   T
  0.7113772306885551  0.5757505338671507  0.6536583834984100   T   T   T
  0.4374281164914962  0.5718027024492756  0.2888602990238951   T   T   T
  0.4374273979820344  0.5718062276169604  0.7888607071704712   T   T   T
  0.9374287595576263  0.5718088958589718  0.2888610125683471   T   T   T
  0.9374305467081072  0.5718044585019584  0.7888606413399586   T   T   T
  0.4398422391492502  0.5739255715590019  0.0503641181654331   T   T   T
  0.4398319231216234  0.5739292819983390  0.5503665069905139   T   T   T
  0.9398362592236253  0.5739287098013577  0.0503671799908005   T   T   T
  0.9398238299036450  0.5739331012926598  0.5503737440211438   T   T   T
  0.3188541721588152  0.5711561359727284  0.2481070308994617   T   T   T
  0.3188536938170827  0.5711537927187464  0.7481115979471156   T   T   T
  0.8188933392076692  0.5712205826674861  0.2480865403783170   T   T   T
  0.8188011556271135  0.5713808901115698  0.7483980797935317   T   T   T
  0.0562714355488154  0.5732747535383993  0.3555093822357804   T   T   T
  0.0562692216084955  0.5732829209799917  0.8555090401484264   T   T   T
  0.5562862117533101  0.5732306956817794  0.3555500304464587   T   T   T
  0.5562676382102438  0.5732913498717025  0.8555118708459375   T   T   T
  0.0563437873685473  0.5701260465405724  0.1118743738994183   T   T   T
  0.0560058430740682  0.5708009292184144  0.6134650498533816   T   T   T
  0.5567803490534260  0.5701688356288486  0.1114639765656023   T   T   T
  0.5562029684977929  0.5688275103218032  0.6124889148256472   T   T   T
  0.4603880168201684  0.2091322197052747  0.6490195909746177   T   T   T
  0.4844701921436965  0.1351223595856652  0.6847139732236585   T   T   T
  0.6035474791343844  0.1857049236428026  0.6639110539794686   T   T   T
  0.4537200933503058  0.1665003095075051  0.5321548505943099   T   T   T
  0.4610025574560623  0.0913267601193937  0.5629725771465033   T   T   T
  0.6292930017324565  0.2196736681972098  0.5338182240727178   T   T   T
  0.5737422239082903  0.2669911829162217  0.5804342216542651   T   T   T
  0.6393169763816360  0.0383774744466265  0.6185406620329914   T   T   T
  0.2566388165327496  0.1064538680953220  0.5564875694596978   T   T   T
  0.5828875897191423  0.2228525773500962  0.5631710386707454   T   T   T
  0.2499763570393156  0.5653266943423887  0.4893421228830590   T   T   T
  0.2499708872421138  0.5653255841509264  0.9893449696360790   T   T   T
  0.7499710451781993  0.5653252350758962  0.4893471172517181   T   T   T
  0.7499709257280927  0.5653255992641704  0.9893447653271181   T   T   T
  0.1666049146312858  0.5653457999377025  0.3650221828473619   T   T   T
  0.1666049296430643  0.5653459083031294  0.8650225301899752   T   T   T
  0.6666051025588047  0.5653458374555740  0.3650237272349415   T   T   T
  0.6666053651415069  0.5653458909464035  0.8650229846546580   T   T   T
  0.1665906571203664  0.5643179534884126  0.1247925928736890   T   T   T
  0.1665904841914028  0.5643195848606695  0.6247869989573474   T   T   T
  0.6665872790180032  0.5643130471964994  0.1248294436385891   T   T   T
  0.6665807603489995  0.5643058435454193  0.6249069256261066   T   T   T
  0.4048946559659896  0.5561153781629855  0.2503465860625766   T   T   T
  0.4048953252678018  0.5561153780371200  0.7503457264559898   T   T   T
  0.9048948278281514  0.5561154633342795  0.2503456938618811   T   T   T
  0.9048943432840773  0.5561154559975989  0.7503472767776387   T   T   T
  0.4048252645877710  0.5653177799244631  0.0102325645773931   T   T   T
  0.4048264665254848  0.5653180681459489  0.5102358239291078   T   T   T
  0.9048248472834999  0.5653181765793249  0.0102361430223823   T   T   T
  0.9048247995987211  0.5653185820323756  0.5102391958355454   T   T   T
  0.2617036283615732  0.5652650700599295  0.2496438313771492   T   T   T
  0.2617035121340336  0.5652660945427428  0.7496440802756368   T   T   T
  0.7617086260755670  0.5652659758929417  0.2496452591821381   T   T   T
  0.7617024573808635  0.5652639241083719  0.7496463589908160   T   T   T
  0.0000264470264781  0.5643021589230912  0.3642655831754738   T   T   T
  0.0000262078152176  0.5643023082203058  0.8642650751557568   T   T   T
  0.5000270422236639  0.5643012316993534  0.3642678840738611   T   T   T
  0.5000263975002355  0.5643022784468315  0.8642644398037618   T   T   T
  0.0000716141645967  0.5561838082445476  0.1143139464925156   T   T   T
  0.0000608119285417  0.5561872874840361  0.6143365069122453   T   T   T
  0.5000901326249263  0.5561887209497414  0.1143106619676928   T   T   T
  0.5000549224862212  0.5561701185850936  0.6143211286129429   T   T   T
  0.3448457035348298  0.4160628974105478  0.4383269300974675   T   T   T
  0.3448459513144044  0.4160627004572319  0.9383250515465633   T   T   T
  0.8448447586262873  0.4160629112934373  0.4383276224317427   T   T   T
  0.8448451108580315  0.4160628925694567  0.9383262220771940   T   T   T
  0.3332103688877694  0.4119612703212709  0.1883829446495184   T   T   T
  0.3332183566088460  0.4119595600304535  0.6883748936559613   T   T   T
  0.8332137480465605  0.4119619074976768  0.1883765842144598   T   T   T
  0.8332106278753386  0.4119601069727210  0.6883787781017858   T   T   T
  0.1665741905420788  0.4161152197041105  0.4682415649106773   T   T   T
  0.1665736670515230  0.4161159633320324  0.9682455459681307   T   T   T
  0.6665712679009843  0.4161177009314372  0.4682587571551693   T   T   T
  0.6665737456784200  0.4161158280373485  0.9682457675271721   T   T   T
  0.0952014493950628  0.4118796168314773  0.3237830713901602   T   T   T
  0.0951932355303242  0.4118838300907086  0.8237865657286605   T   T   T
  0.5951936056631411  0.4118867668874202  0.3237858300326764   T   T   T
  0.5952019849563683  0.4118790402809580  0.8237829829825571   T   T   T
  0.0832771083607255  0.4078426747613761  0.0629425861352360   T   T   T
  0.0832798732908984  0.4078434211702842  0.5629422539223015   T   T   T
  0.5832768724968602  0.4078424449564650  0.0629424988286544   T   T   T
  0.5832686896154229  0.4078341419274594  0.5629462937127272   T   T   T
  0.4047686394522287  0.4120099095542926  0.0928738511273153   T   T   T
  0.4047653184547286  0.4120113190210688  0.5928744951557690   T   T   T
  0.9047630687524162  0.4120117124158398  0.0928988505588180   T   T   T
  0.9047614060770499  0.4120086700974994  0.5928804149750633   T   T   T
  0.4048527682057710  0.4118616647558611  0.3429116984103331   T   T   T
  0.4048469572015563  0.4118642794096132  0.8429048034314448   T   T   T
  0.9048479777872842  0.4118661226705669  0.3428891648310426   T   T   T
  0.9048485167912759  0.4118660614174985  0.8428883275630028   T   T   T
  0.1430737326506843  0.4160882491258349  0.2182955367797490   T   T   T
  0.1430734278011627  0.4160889085110924  0.7182954871164426   T   T   T
  0.6430735403594241  0.4160880743791111  0.2182957312877036   T   T   T
  0.6430706377377646  0.4160873653155548  0.7182987012863364   T   T   T
  0.6072047162535341  0.0735084060856295  0.6351308682766472   T   T   T
  0.3096648408169003  0.1013415571920433  0.5414404500968217   T   T   T
  0.6663979011974632  0.1198658859617510  0.5423007100239801   T   T   T
  0.3214188827284019  0.1671677698760945  0.6253450362244450   T   T   T
 
  


