C H N O                                 
   1.00000000000000     
    17.0814999999999984    0.0000000000000000    0.0000000000000000
     0.0000000000000000   20.0000000000000000    0.0000000000000000
     0.0000000000000000    0.0000000000000000   19.7743000000000002
   C    H    N    O 
   133    74     2    99
Selective dynamics
Direct
  0.1060397025432101  0.1323708023067884  0.0317503816447539   T   T   T
  0.1066286633942549  0.1319927277958768  0.2855505731361271   T   T   T
  0.1060260093509121  0.1323685564448063  0.5317442244024041   T   T   T
  0.1066296862755750  0.1319940386766390  0.7855524765608295   T   T   T
  0.6060292718694488  0.1323761101486604  0.0317512252871807   T   T   T
  0.6066284642744380  0.1319980755666117  0.2855516636816851   T   T   T
  0.6061617960263299  0.1321324678480411  0.5309403858689714   T   T   T
  0.6066701911278330  0.1319594892162083  0.7854890392030421   T   T   T
  0.1062798624638335  0.1029155710144213  0.1580102369443870   T   T   T
  0.1064731037308762  0.1026427445729753  0.4082991751650554   T   T   T
  0.1062780855776887  0.1029146433763529  0.6580085711360371   T   T   T
  0.1064756177710247  0.1026454142311198  0.9082987910080439   T   T   T
  0.6062822615874573  0.1029176302121217  0.1580149694924124   T   T   T
  0.6064603061476013  0.1026436093553297  0.4082926833173590   T   T   T
  0.6066373807995661  0.1024568271004802  0.6523842203625603   T   T   T
  0.6064751648567168  0.1026434574189356  0.9082979449646633   T   T   T
  0.3565576447924947  0.1229983710705997  0.0310078568675429   T   T   T
  0.3566775443886461  0.1229738964008806  0.2857070794645888   T   T   T
  0.3565719345908472  0.1229904276323112  0.5309696301002186   T   T   T
  0.3566419040612973  0.1229829014724486  0.7857222856390843   T   T   T
  0.8565626404617438  0.1229973676555576  0.0309924496916128   T   T   T
  0.8566765904958716  0.1229722023746217  0.2857071262403823   T   T   T
  0.8565720516022561  0.1229977452423607  0.5310007459336665   T   T   T
  0.8566627371196924  0.1229758826847182  0.7857078012119291   T   T   T
  0.3547269565266120  0.1020094618830258  0.1561767594397349   T   T   T
  0.3565097844052355  0.1020876299389911  0.4082403355055975   T   T   T
  0.3553565104978395  0.1020196695746828  0.6555844292050156   T   T   T
  0.3565089737526332  0.1020896745107949  0.9082413895379950   T   T   T
  0.8549377604318505  0.1020253221829530  0.1559585692705767   T   T   T
  0.8565078062982461  0.1020908353163750  0.4082406686073047   T   T   T
  0.8546635864155619  0.1020155730510393  0.6561953071537633   T   T   T
  0.8565078270540455  0.1020898055509452  0.9082408685838622   T   T   T
  0.1813084192209295  0.1029209610081955  0.0315000283212767   T   T   T
  0.1889727994879420  0.1025206860551129  0.2853794393110851   T   T   T
  0.1812589336809711  0.1028903050977126  0.5315378003567752   T   T   T
  0.1889650790652526  0.1025210713508453  0.7853812044566284   T   T   T
  0.6812546102691274  0.1029000980484628  0.0315321480081625   T   T   T
  0.6889679279888884  0.1025199978171330  0.2853798438836603   T   T   T
  0.6815824577884413  0.1029132011290451  0.5315055462901712   T   T   T
  0.6889700352139471  0.1025206845247339  0.7853799079327952   T   T   T
  0.1902841697597471  0.1323202920353912  0.1543740236477755   T   T   T
  0.1899404566779523  0.1322581106121456  0.4081448017630487   T   T   T
  0.1902796324117672  0.1322935620201975  0.6543411870646184   T   T   T
  0.1899369859545547  0.1322610335549680  0.9081437223818418   T   T   T
  0.6902891172467202  0.1323173201649893  0.1543759840767908   T   T   T
  0.6899191987326058  0.1322642618758838  0.4081431584264233   T   T   T
  0.6902213422579302  0.1321439993710322  0.6537601494941622   T   T   T
  0.6899384871098729  0.1322610913181878  0.9081439157260657   T   T   T
  0.4396801737952932  0.1114822682566098  0.0308625565328111   T   T   T
  0.4400518701205834  0.1114381680588338  0.2853893676095492   T   T   T
  0.4396202798306414  0.1114760894732819  0.5308196287809731   T   T   T
  0.4400537907952290  0.1114364975132798  0.7853900278030953   T   T   T
  0.9396801335825746  0.1114807578943971  0.0308588201516080   T   T   T
  0.9400485891050515  0.1114385127347704  0.2853873984560748   T   T   T
  0.9396817140250837  0.1114841885111452  0.5308624635726082   T   T   T
  0.9400490297318621  0.1114376670202710  0.7853889085571633   T   T   T
  0.4364464493890798  0.1326942241780784  0.1565746500429876   T   T   T
  0.4389059809980464  0.1327060995387714  0.4084202951327806   T   T   T
  0.4364211203150674  0.1326893933616570  0.6565688000152416   T   T   T
  0.4389066942308538  0.1326987283345746  0.9084196110415793   T   T   T
  0.9365464770896483  0.1326939415638261  0.1565065757917864   T   T   T
  0.9389066639340827  0.1326971438260847  0.4084186210651689   T   T   T
  0.9363713600487157  0.1327008645053736  0.6566172004092455   T   T   T
  0.9389055466073236  0.1326995511141685  0.9084200065284525   T   T   T
  0.2266181636354309  0.1027675337780984  0.0921357509439797   T   T   T
  0.2271661247499604  0.1026635034431492  0.3472803436930997   T   T   T
  0.2266228266246973  0.1027537187309811  0.5921339517523243   T   T   T
  0.2271665787272500  0.1026648128851011  0.8472773927451616   T   T   T
  0.7266163056453092  0.1027539961658643  0.0921312786251546   T   T   T
  0.7271642211203401  0.1026654639115137  0.3472798058741308   T   T   T
  0.7267748094174910  0.1027520773287993  0.5921198888376569   T   T   T
  0.7271696802730984  0.1026637755093549  0.8472793122434314   T   T   T
  0.2306436621848801  0.1020255275269974  0.2178485481609071   T   T   T
  0.2276907538449729  0.1019153386693409  0.4692203714092942   T   T   T
  0.2305905165669605  0.1020251016788297  0.7178196680364815   T   T   T
  0.2277007066820622  0.1019188756515694  0.9692134485506257   T   T   T
  0.7306470271713648  0.1020252529495842  0.2178480624611757   T   T   T
  0.7276966450553715  0.1019250520251294  0.4692268331639022   T   T   T
  0.7304769967257462  0.1020153204786607  0.7177688420013917   T   T   T
  0.7276921888165724  0.1019173584579673  0.9692207933172043   T   T   T
  0.4769233029229892  0.1127322512632276  0.0932855034351961   T   T   T
  0.4779025650424714  0.1125107347138166  0.3472142713868127   T   T   T
  0.4770310443937029  0.1127962587257451  0.5930732620260037   T   T   T
  0.4778923550265531  0.1125140156046577  0.8472167934938987   T   T   T
  0.9769720133451634  0.1127321561208076  0.0932454314623662   T   T   T
  0.9779002982271436  0.1125110105259496  0.3472124466613373   T   T   T
  0.9769002881675365  0.1127335493167780  0.5933005059900952   T   T   T
  0.9778968467292464  0.1125115106961272  0.8472155197770656   T   T   T
  0.4803718272108084  0.1021611300762420  0.2178002668011475   T   T   T
  0.4781673462473882  0.1021566028638374  0.4690614603433437   T   T   T
  0.4804663888714473  0.1021772089471492  0.7178007880404043   T   T   T
  0.4781548537937763  0.1021553065727332  0.9690671786845083   T   T   T
  0.9803613847435174  0.1021592727027328  0.2177817941040952   T   T   T
  0.9781557933182434  0.1021540321520042  0.4690668398806220   T   T   T
  0.9803739878684091  0.1021599041520315  0.7178097463756369   T   T   T
  0.9781551286882926  0.1021558701835873  0.9690665018052848   T   T   T
  0.0605291067148597  0.1316673090877161  0.0967679018557125   T   T   T
  0.0603829903068822  0.1317876003229741  0.3471722119768011   T   T   T
  0.0605209402135335  0.1316623958039377  0.5967684923941221   T   T   T
  0.0603817740019068  0.1317880792466957  0.8471729334277404   T   T   T
  0.5605258241457320  0.1316680181548606  0.0967818360970856   T   T   T
  0.5603878664733738  0.1317964743344425  0.3471729624557556   T   T   T
  0.5600996064844168  0.1318625341055039  0.5924428835884105   T   T   T
  0.5603766066069750  0.1317823556141942  0.8471565589816149   T   T   T
  0.0608485376817187  0.1329293091725212  0.2153978500529332   T   T   T
  0.0604235926161223  0.1331651926347469  0.4691772763474615   T   T   T
  0.0608473874237893  0.1329249273937376  0.7154009722093631   T   T   T
  0.0604236772741088  0.1331671284111490  0.9691790586002544   T   T   T
  0.5608502755447682  0.1329268734174986  0.2154010833060735   T   T   T
  0.5604625672126216  0.1331865548744683  0.4690984520966334   T   T   T
  0.5613817994685876  0.1329195423875180  0.7145111836411405   T   T   T
  0.5604232312926626  0.1331662500296129  0.9691782411923747   T   T   T
  0.3102282762551062  0.1217037751629504  0.0924055708494491   T   T   T
  0.3103774055474111  0.1218823991347885  0.3470802285826428   T   T   T
  0.3102601158689040  0.1216925801129748  0.5922808803885394   T   T   T
  0.3103744264194229  0.1218799475841999  0.8470872031902208   T   T   T
  0.8102353279445931  0.1216984768377588  0.0923331302358049   T   T   T
  0.8103769230788803  0.1218804374660228  0.3470811164949346   T   T   T
  0.8102600881606428  0.1216963967439772  0.5923645383447271   T   T   T
  0.8103759326324419  0.1218809934120762  0.8470826047400146   T   T   T
  0.3135568735677772  0.1325651749437290  0.2204569267498966   T   T   T
  0.3104281658005782  0.1324094161165761  0.4693500755305202   T   T   T
  0.3136165866985124  0.1325735523857530  0.7208303028820829   T   T   T
  0.3104289825257518  0.1324143818761826  0.9693515806753029   T   T   T
  0.8135540421523629  0.1325695184776882  0.2204835318107448   T   T   T
  0.8104335720991624  0.1324018079812266  0.4693529155381750   T   T   T
  0.8135246022176672  0.1325644491776093  0.7204720723962040   T   T   T
  0.8104264764972201  0.1324162823443672  0.9693503014378623   T   T   T
  0.4944289449566001  0.4295112450933330  0.4599400379454446   T   T   T
  0.5831623208519416  0.4179243435711383  0.4692333224955722   T   T   T
  0.4464011993494746  0.4136052692225848  0.5225970367698448   T   T   T
  0.6189772218128378  0.4693938343838403  0.5117238010618411   T   T   T
  0.3613750391231867  0.4387667161038440  0.5138053009445933   T   T   T
  0.0148769249532092  0.2215195814067591  0.1969564230158017   T   T   T
  0.0149273481224480  0.2218549139763844  0.4471914327631818   T   T   T
  0.0148716935519667  0.2215057784442491  0.6969565960191363   T   T   T
  0.0149262457644818  0.2218566812577981  0.9471962668257587   T   T   T
  0.5148762686021924  0.2215158928202650  0.1969563540196856   T   T   T
  0.5149517710410668  0.2219099763152986  0.4472252924651654   T   T   T
  0.5148831424434426  0.2214958942511341  0.6969704783490563   T   T   T
  0.5149269181298447  0.2218567431522935  0.9471961337241025   T   T   T
  0.1575939132995233  0.2216266773032103  0.1257730819304540   T   T   T
  0.1560370032660126  0.2230867978752123  0.3778790804007332   T   T   T
  0.1575735490145202  0.2215289974503053  0.6257604751660891   T   T   T
  0.1559795976033860  0.2232519315695370  0.8781079771937679   T   T   T
  0.6575923214007211  0.2216210158863595  0.1257728983886306   T   T   T
  0.6561044535736967  0.2240405235410980  0.3787728287744840   T   T   T
  0.6575944894179329  0.2215901286515387  0.6257618889018883   T   T   T
  0.6559751470148679  0.2232340167581071  0.8780717134784188   T   T   T
  0.4315107985807271  0.0177459893970571  0.1966384564136002   T   T   T
  0.4311116192046816  0.0169308022830859  0.4445158459130622   T   T   T
  0.4315123889105437  0.0177450653235232  0.6966606925150921   T   T   T
  0.4311194141597242  0.0169267367995100  0.9445196167531803   T   T   T
  0.9315101976947311  0.0177461529672025  0.1966346637819255   T   T   T
  0.9311079567440449  0.0169368346722819  0.4445098613691232   T   T   T
  0.9315107679354385  0.0177454633726657  0.6966366237223729   T   T   T
  0.9311143416696288  0.0169321559866676  0.9445159672119323   T   T   T
  0.1813710731237146  0.0179471689599446  0.1870142162740375   T   T   T
  0.1814624032151141  0.0177661785701040  0.4371754400653499   T   T   T
  0.1813682783865016  0.0179488139291102  0.6870187261382537   T   T   T
  0.1814495680098195  0.0177760908969373  0.9372029943126702   T   T   T
  0.6813703376835994  0.0179472334484180  0.1870130621476141   T   T   T
  0.6814791159057130  0.0177568314552654  0.4371349057928369   T   T   T
  0.6813576948370088  0.0179902971646848  0.6870295735371971   T   T   T
  0.6814522896820344  0.0177740132154993  0.9371966528738919   T   T   T
  0.2683963229303389  0.2216814646580658  0.1965537306065402   T   T   T
  0.2670691009685566  0.2216378680263185  0.4465919266792896   T   T   T
  0.2683958674377967  0.2216857491710665  0.6965688515873228   T   T   T
  0.2670172412005099  0.2216697848731278  0.9466504141416746   T   T   T
  0.7683930475905810  0.2216806538611040  0.1965521528091086   T   T   T
  0.7671145595241712  0.2215984703102714  0.4465551745758300   T   T   T
  0.7683988160574713  0.2216829728392172  0.6965561894591620   T   T   T
  0.7670185103684413  0.2216686105666027  0.9466461332172568   T   T   T
  0.0510481343791470  0.0179507346828007  0.1788098775298246   T   T   T
  0.0510103534773673  0.0201535257312615  0.4293257510385749   T   T   T
  0.0510465507443001  0.0179520041156457  0.6788210872679274   T   T   T
  0.0510005603599107  0.0202992395512187  0.9294065762795354   T   T   T
  0.5510478473268180  0.0179513472725403  0.1788139657285286   T   T   T
  0.5509945268782810  0.0201430208669231  0.4293082860065022   T   T   T
  0.5510495909765022  0.0179950016779433  0.6788031363371805   T   T   T
  0.5510062687161156  0.0202684409745417  0.9293933013021686   T   T   T
  0.3006671920338826  0.0178010622165053  0.1761525145430437   T   T   T
  0.3006965448834956  0.0177488608323405  0.4262957934498682   T   T   T
  0.3006660209846265  0.0178107219064583  0.6761512621316236   T   T   T
  0.3006949324290978  0.0177510257145341  0.9262942961423324   T   T   T
  0.8006662788421834  0.0178049680467463  0.1761522716368958   T   T   T
  0.8006958776325209  0.0177511239850061  0.4262952224022139   T   T   T
  0.8006648609783772  0.0178014618271561  0.6761558417870940   T   T   T
  0.8006941393832390  0.0177510711839756  0.9262945162818614   T   T   T
  0.3906231404809964  0.2207176047969367  0.1819115955318332   T   T   T
  0.3929582135348121  0.2223313891500527  0.4287628963951836   T   T   T
  0.3907349632343353  0.2205312440469923  0.6818270329709935   T   T   T
  0.3929018274662973  0.2221490532303265  0.9289638624644955   T   T   T
  0.8906324169746642  0.2207178846768704  0.1819111446251369   T   T   T
  0.8929044385570398  0.2221805696699291  0.4289305658458215   T   T   T
  0.8904885419466141  0.2206131961621796  0.6818232294117836   T   T   T
  0.8928994470457357  0.2221523974587671  0.9289591180729582   T   T   T
  0.4793339031743198  0.4813358647141314  0.4425396356940093   T   T   T
  0.4761900815471132  0.3979286280987766  0.4203171344943655   T   T   T
  0.6090765329458762  0.4255394073456481  0.4199926334355449   T   T   T
  0.4494387455711191  0.3596790644643107  0.5335430552033907   T   T   T
  0.4719389053726144  0.4375292817053230  0.5680972935131745   T   T   T
  0.5918941224975885  0.3438670018040239  0.5394355408303344   T   T   T
  0.6524052816988084  0.3366554855208053  0.4798580518773233   T   T   T
  0.3223422524151262  0.3574817866428573  0.5704004541830003   T   T   T
  0.2524003778553256  0.4132174442214985  0.5444189646021811   T   T   T
  0.6447656610479863  0.5584625411146362  0.5286014332689285   T   T   T
  0.5954015327301074  0.3472473384434884  0.4897129089632911   T   T   T
  0.3093007969762760  0.3999223933839179  0.5508732731174146   T   T   T
  0.3333291869729673  0.1836413592748546  0.0714569631003762   T   T   T
  0.3333219598701709  0.1844567060059215  0.3215670644577795   T   T   T
  0.3333291221957689  0.1836493098756169  0.5714569220392419   T   T   T
  0.3333212217409606  0.1844562950842012  0.8215677224751016   T   T   T
  0.8333291840983031  0.1836427261668072  0.0714564401519038   T   T   T
  0.8333223907406858  0.1844566545781304  0.3215674819050666   T   T   T
  0.8333286399905033  0.1836429105156231  0.5714568601726465   T   T   T
  0.8333223315549875  0.1844561616331530  0.8215666686429376   T   T   T
  0.0834251491471810  0.1938040405158976  0.0714540376079312   T   T   T
  0.0836039530707219  0.1931417835552929  0.3214696053297873   T   T   T
  0.0834257160875639  0.1938058107602188  0.5714546078812351   T   T   T
  0.0836009927657712  0.1931415600817288  0.8214638881979565   T   T   T
  0.5834251574785361  0.1938039667694894  0.0714543135925103   T   T   T
  0.5836001968287359  0.1931397047795336  0.3214684265407339   T   T   T
  0.5834283681129057  0.1938619184727370  0.5714373583260618   T   T   T
  0.5836005867172845  0.1931408787441830  0.8214580226962482   T   T   T
  0.2023481796365804  0.0408687148289698  0.0714097406612392   T   T   T
  0.2024535367128975  0.0415525685702914  0.3214275211961467   T   T   T
  0.2023473922015483  0.0408690588503545  0.5714103438210395   T   T   T
  0.2024541838295995  0.0415527645173343  0.8214271841779821   T   T   T
  0.7023473826642025  0.0408677495429181  0.0714102628337300   T   T   T
  0.7024546904508322  0.0415527816900145  0.3214282543069394   T   T   T
  0.7023688478329175  0.0408692056856611  0.5714098546498261   T   T   T
  0.7024540970817834  0.0415525150172951  0.8214273765598481   T   T   T
  0.4642586483069007  0.0509167981764300  0.0714349564939978   T   T   T
  0.4642274580209335  0.0501728817592278  0.3215303545385759   T   T   T
  0.4642592715343794  0.0509017582258340  0.5714379045636215   T   T   T
  0.4642268304780389  0.0501728630120902  0.8215303626747087   T   T   T
  0.9642595552901089  0.0509101821089526  0.0714364968355352   T   T   T
  0.9642276987630585  0.0501735525548402  0.3215304011251601   T   T   T
  0.9642591365682432  0.0509180242650870  0.5714350032595688   T   T   T
  0.9642280084984619  0.0501731913647199  0.8215301680841059   T   T   T
  0.0712898410005665  0.2040751498255218  0.2040835827121734   T   T   T
  0.0705175266395399  0.2042443532498371  0.4540963601619670   T   T   T
  0.0712890814673714  0.2040761912473255  0.7040829413325476   T   T   T
  0.0705185203393873  0.2042420592854940  0.9540955951095383   T   T   T
  0.5712899258201319  0.2040753230980897  0.2040834226117476   T   T   T
  0.5705242431263903  0.2041766903477110  0.4540899068884778   T   T   T
  0.5712895929926921  0.2040778865137368  0.7040786712475846   T   T   T
  0.5705179309307585  0.2042419490590782  0.9540953091617957   T   T   T
  0.2022984624106909  0.2040019160985893  0.1530445327114998   T   T   T
  0.2014680100872997  0.2039463540644197  0.4030863900493383   T   T   T
  0.2022993058971057  0.2040055437947581  0.6530441866004677   T   T   T
  0.2014571804949780  0.2039597934661617  0.9030948213749835   T   T   T
  0.7022988491873515  0.2040022209181631  0.1530447420012195   T   T   T
  0.7014817098170748  0.2039907451876545  0.4031035925741709   T   T   T
  0.7022946151400475  0.2039984130067681  0.6530391007907077   T   T   T
  0.7014567749766529  0.2039588388819918  0.9030949190662760   T   T   T
  0.4880196227793609  0.0306076260506324  0.2142271247112286   T   T   T
  0.4879896409998778  0.0306319944510002  0.4592070547805391   T   T   T
  0.4880212427462853  0.0306059826908881  0.7142259817970548   T   T   T
  0.4879910502039487  0.0306338078385755  0.9592025089078420   T   T   T
  0.9880196088890183  0.0306079101473993  0.2142274209976611   T   T   T
  0.9879909064880610  0.0306331489740997  0.4592187689278789   T   T   T
  0.9880202102935597  0.0306076030872950  0.7142267333338655   T   T   T
  0.9879915778200526  0.0306339975914922  0.9592069192187260   T   T   T
  0.2380051280134647  0.0306445789918628  0.2041181240721941   T   T   T
  0.2371852224856150  0.0305664771368289  0.4542205220223702   T   T   T
  0.2380058809790345  0.0306451400761164  0.7041176320467744   T   T   T
  0.2371817205586484  0.0305621451644910  0.9542193089924074   T   T   T
  0.7380056285761986  0.0306443293280758  0.2041181518597600   T   T   T
  0.7371780931509097  0.0305727457853294  0.4542189685895774   T   T   T
  0.7380051384953370  0.0306429284814194  0.7041177697984398   T   T   T
  0.7371779724787804  0.0305633987446576  0.9542196795689145   T   T   T
  0.3212784445805182  0.2041089655215607  0.2142524488331905   T   T   T
  0.3204848515833774  0.2043020308991578  0.4641993144517177   T   T   T
  0.3212789422301676  0.2041148338546756  0.7142521957165211   T   T   T
  0.3204884352826091  0.2042926975305479  0.9641971267762950   T   T   T
  0.8212782832623707  0.2041100578871206  0.2142526484563737   T   T   T
  0.8204834218877102  0.2042990315711055  0.4641988238367465   T   T   T
  0.8212784644221436  0.2041091526298592  0.7142524307469497   T   T   T
  0.8204892460373640  0.2042928191256119  0.9641971491038270   T   T   T
  0.1072071589373596  0.0313793543381268  0.1582328311754374   T   T   T
  0.1071480100994591  0.0306794774155378  0.4082003898450596   T   T   T
  0.1072121875417327  0.0313892006550441  0.6582263538885573   T   T   T
  0.1071639398515784  0.0306815519535417  0.9082007460197831   T   T   T
  0.6072077519533098  0.0313800636248281  0.1582327304579764   T   T   T
  0.6071705611026446  0.0306772220572978  0.4081995048568760   T   T   T
  0.6072290767179003  0.0313713419636487  0.6581719310084005   T   T   T
  0.6071636817189029  0.0306808588759871  0.9082010464686389   T   T   T
  0.3580886613353628  0.0305053486301487  0.1582321720450796   T   T   T
  0.3572338418977847  0.0306130514639898  0.4082119604308693   T   T   T
  0.3580839400959364  0.0305179262553741  0.6582158422069937   T   T   T
  0.3572343000729528  0.0306127487351228  0.9082113830024562   T   T   T
  0.8580887958828347  0.0305066357420375  0.1582301739095712   T   T   T
  0.8572341458247410  0.0306126909377970  0.4082116246887550   T   T   T
  0.8580901814419620  0.0305128473724717  0.6582219237997030   T   T   T
  0.8572348252201886  0.0306124930691262  0.9082113979068042   T   T   T
  0.4405425937053244  0.2049052214245441  0.1582357298255676   T   T   T
  0.4405548766394936  0.2040568692118866  0.4081891373541836   T   T   T
  0.4405502603314835  0.2049334630361074  0.6582248459215213   T   T   T
  0.4405555755216186  0.2040575728492833  0.9081896639905951   T   T   T
  0.9405473595183578  0.2049072695888325  0.1582231601016322   T   T   T
  0.9405558319330755  0.2040585797184077  0.4081897125773245   T   T   T
  0.9405210119495664  0.2049134526683908  0.6582410242600981   T   T   T
  0.9405559223734549  0.2040574096893342  0.9081897236480173   T   T   T
  0.6309356909604429  0.5306627432086629  0.4897666932951203   T   T   T
  0.6310081459062076  0.4591248572183408  0.5717005065212332   T   T   T
  0.3453055607214290  0.4895837313008613  0.4796873326164717   T   T   T
 
  0.00000000E+00  0.00000000E+00  0.00000000E+00
  0.00000000E+00  0.00000000E+00  0.00000000E+00
  0.00000000E+00  0.00000000E+00  0.00000000E+00
  0.00000000E+00  0.00000000E+00  0.00000000E+00
  0.00000000E+00  0.00000000E+00  0.00000000E+00
  0.00000000E+00  0.00000000E+00  0.00000000E+00
  0.00000000E+00  0.00000000E+00  0.00000000E+00
  0.00000000E+00  0.00000000E+00  0.00000000E+00
  0.00000000E+00  0.00000000E+00  0.00000000E+00
  0.00000000E+00  0.00000000E+00  0.00000000E+00
  0.00000000E+00  0.00000000E+00  0.00000000E+00
  0.00000000E+00  0.00000000E+00  0.00000000E+00
  0.00000000E+00  0.00000000E+00  0.00000000E+00
  0.00000000E+00  0.00000000E+00  0.00000000E+00
  0.00000000E+00  0.00000000E+00  0.00000000E+00
  0.00000000E+00  0.00000000E+00  0.00000000E+00
  0.00000000E+00  0.00000000E+00  0.00000000E+00
  0.00000000E+00  0.00000000E+00  0.00000000E+00
  0.00000000E+00  0.00000000E+00  0.00000000E+00
  0.00000000E+00  0.00000000E+00  0.00000000E+00
  0.00000000E+00  0.00000000E+00  0.00000000E+00
  0.00000000E+00  0.00000000E+00  0.00000000E+00
  0.00000000E+00  0.00000000E+00  0.00000000E+00
  0.00000000E+00  0.00000000E+00  0.00000000E+00
  0.00000000E+00  0.00000000E+00  0.00000000E+00
  0.00000000E+00  0.00000000E+00  0.00000000E+00
  0.00000000E+00  0.00000000E+00  0.00000000E+00
  0.00000000E+00  0.00000000E+00  0.00000000E+00
  0.00000000E+00  0.00000000E+00  0.00000000E+00
  0.00000000E+00  0.00000000E+00  0.00000000E+00
  0.00000000E+00  0.00000000E+00  0.00000000E+00
  0.00000000E+00  0.00000000E+00  0.00000000E+00
  0.00000000E+00  0.00000000E+00  0.00000000E+00
  0.00000000E+00  0.00000000E+00  0.00000000E+00
  0.00000000E+00  0.00000000E+00  0.00000000E+00
  0.00000000E+00  0.00000000E+00  0.00000000E+00
  0.00000000E+00  0.00000000E+00  0.00000000E+00
  0.00000000E+00  0.00000000E+00  0.00000000E+00
  0.00000000E+00  0.00000000E+00  0.00000000E+00
  0.00000000E+00  0.00000000E+00  0.00000000E+00
  0.00000000E+00  0.00000000E+00  0.00000000E+00
  0.00000000E+00  0.00000000E+00  0.00000000E+00
  0.00000000E+00  0.00000000E+00  0.00000000E+00
  0.00000000E+00  0.00000000E+00  0.00000000E+00
  0.00000000E+00  0.00000000E+00  0.00000000E+00
  0.00000000E+00  0.00000000E+00  0.00000000E+00
  0.00000000E+00  0.00000000E+00  0.00000000E+00
  0.00000000E+00  0.00000000E+00  0.00000000E+00
  0.00000000E+00  0.00000000E+00  0.00000000E+00
  0.00000000E+00  0.00000000E+00  0.00000000E+00
  0.00000000E+00  0.00000000E+00  0.00000000E+00
  0.00000000E+00  0.00000000E+00  0.00000000E+00
  0.00000000E+00  0.00000000E+00  0.00000000E+00
  0.00000000E+00  0.00000000E+00  0.00000000E+00
  0.00000000E+00  0.00000000E+00  0.00000000E+00
  0.00000000E+00  0.00000000E+00  0.00000000E+00
  0.00000000E+00  0.00000000E+00  0.00000000E+00
  0.00000000E+00  0.00000000E+00  0.00000000E+00
  0.00000000E+00  0.00000000E+00  0.00000000E+00
  0.00000000E+00  0.00000000E+00  0.00000000E+00
  0.00000000E+00  0.00000000E+00  0.00000000E+00
  0.00000000E+00  0.00000000E+00  0.00000000E+00
  0.00000000E+00  0.00000000E+00  0.00000000E+00
  0.00000000E+00  0.00000000E+00  0.00000000E+00
  0.00000000E+00  0.00000000E+00  0.00000000E+00
  0.00000000E+00  0.00000000E+00  0.00000000E+00
  0.00000000E+00  0.00000000E+00  0.00000000E+00
  0.00000000E+00  0.00000000E+00  0.00000000E+00
  0.00000000E+00  0.00000000E+00  0.00000000E+00
  0.00000000E+00  0.00000000E+00  0.00000000E+00
  0.00000000E+00  0.00000000E+00  0.00000000E+00
  0.00000000E+00  0.00000000E+00  0.00000000E+00
  0.00000000E+00  0.00000000E+00  0.00000000E+00
  0.00000000E+00  0.00000000E+00  0.00000000E+00
  0.00000000E+00  0.00000000E+00  0.00000000E+00
  0.00000000E+00  0.00000000E+00  0.00000000E+00
  0.00000000E+00  0.00000000E+00  0.00000000E+00
  0.00000000E+00  0.00000000E+00  0.00000000E+00
  0.00000000E+00  0.00000000E+00  0.00000000E+00
  0.00000000E+00  0.00000000E+00  0.00000000E+00
  0.00000000E+00  0.00000000E+00  0.00000000E+00
  0.00000000E+00  0.00000000E+00  0.00000000E+00
  0.00000000E+00  0.00000000E+00  0.00000000E+00
  0.00000000E+00  0.00000000E+00  0.00000000E+00
  0.00000000E+00  0.00000000E+00  0.00000000E+00
  0.00000000E+00  0.00000000E+00  0.00000000E+00
  0.00000000E+00  0.00000000E+00  0.00000000E+00
  0.00000000E+00  0.00000000E+00  0.00000000E+00
  0.00000000E+00  0.00000000E+00  0.00000000E+00
  0.00000000E+00  0.00000000E+00  0.00000000E+00
  0.00000000E+00  0.00000000E+00  0.00000000E+00
  0.00000000E+00  0.00000000E+00  0.00000000E+00
  0.00000000E+00  0.00000000E+00  0.00000000E+00
  0.00000000E+00  0.00000000E+00  0.00000000E+00
  0.00000000E+00  0.00000000E+00  0.00000000E+00
  0.00000000E+00  0.00000000E+00  0.00000000E+00
  0.00000000E+00  0.00000000E+00  0.00000000E+00
  0.00000000E+00  0.00000000E+00  0.00000000E+00
  0.00000000E+00  0.00000000E+00  0.00000000E+00
  0.00000000E+00  0.00000000E+00  0.00000000E+00
  0.00000000E+00  0.00000000E+00  0.00000000E+00
  0.00000000E+00  0.00000000E+00  0.00000000E+00
  0.00000000E+00  0.00000000E+00  0.00000000E+00
  0.00000000E+00  0.00000000E+00  0.00000000E+00
  0.00000000E+00  0.00000000E+00  0.00000000E+00
  0.00000000E+00  0.00000000E+00  0.00000000E+00
  0.00000000E+00  0.00000000E+00  0.00000000E+00
  0.00000000E+00  0.00000000E+00  0.00000000E+00
  0.00000000E+00  0.00000000E+00  0.00000000E+00
  0.00000000E+00  0.00000000E+00  0.00000000E+00
  0.00000000E+00  0.00000000E+00  0.00000000E+00
  0.00000000E+00  0.00000000E+00  0.00000000E+00
  0.00000000E+00  0.00000000E+00  0.00000000E+00
  0.00000000E+00  0.00000000E+00  0.00000000E+00
  0.00000000E+00  0.00000000E+00  0.00000000E+00
  0.00000000E+00  0.00000000E+00  0.00000000E+00
  0.00000000E+00  0.00000000E+00  0.00000000E+00
  0.00000000E+00  0.00000000E+00  0.00000000E+00
  0.00000000E+00  0.00000000E+00  0.00000000E+00
  0.00000000E+00  0.00000000E+00  0.00000000E+00
  0.00000000E+00  0.00000000E+00  0.00000000E+00
  0.00000000E+00  0.00000000E+00  0.00000000E+00
  0.00000000E+00  0.00000000E+00  0.00000000E+00
  0.00000000E+00  0.00000000E+00  0.00000000E+00
  0.00000000E+00  0.00000000E+00  0.00000000E+00
  0.00000000E+00  0.00000000E+00  0.00000000E+00
  0.00000000E+00  0.00000000E+00  0.00000000E+00
  0.00000000E+00  0.00000000E+00  0.00000000E+00
  0.00000000E+00  0.00000000E+00  0.00000000E+00
  0.00000000E+00  0.00000000E+00  0.00000000E+00
  0.00000000E+00  0.00000000E+00  0.00000000E+00
  0.00000000E+00  0.00000000E+00  0.00000000E+00
  0.00000000E+00  0.00000000E+00  0.00000000E+00
  0.00000000E+00  0.00000000E+00  0.00000000E+00
  0.00000000E+00  0.00000000E+00  0.00000000E+00
  0.00000000E+00  0.00000000E+00  0.00000000E+00
  0.00000000E+00  0.00000000E+00  0.00000000E+00
  0.00000000E+00  0.00000000E+00  0.00000000E+00
  0.00000000E+00  0.00000000E+00  0.00000000E+00
  0.00000000E+00  0.00000000E+00  0.00000000E+00
  0.00000000E+00  0.00000000E+00  0.00000000E+00
  0.00000000E+00  0.00000000E+00  0.00000000E+00
  0.00000000E+00  0.00000000E+00  0.00000000E+00
  0.00000000E+00  0.00000000E+00  0.00000000E+00
  0.00000000E+00  0.00000000E+00  0.00000000E+00
  0.00000000E+00  0.00000000E+00  0.00000000E+00