C H N O                                 
   1.00000000000000     
    17.0814999999999984    0.0000000000000000    0.0000000000000000
     0.0000000000000000   20.0000000000000000    0.0000000000000000
     0.0000000000000000    0.0000000000000000   19.7743000000000002
   C    H    N    O 
   133    34     2    41
Selective dynamics
Direct
  0.0957007339959535  0.4181712865904837  0.0404492699365925   T   T   T
  0.0959388637894513  0.4278689607977914  0.2858248288961320   T   T   T
  0.0958591829171199  0.4180997014915991  0.5405410941833814   T   T   T
  0.0958681486520498  0.4278714965649044  0.7858995744765502   T   T   T
  0.5955767890760915  0.4279974076243961  0.0406124765563130   T   T   T
  0.5958505877619827  0.4278595617536505  0.2859410110099052   T   T   T
  0.5961181461970229  0.4178180491073470  0.5406663323514638   T   T   T
  0.5957170286538329  0.4181718845223108  0.7857131674419215   T   T   T
  0.1056836585843616  0.4078384462788191  0.1633763864636588   T   T   T
  0.1064838885401641  0.4185570767457688  0.4081444904539422   T   T   T
  0.1062555463608026  0.4078497534937928  0.6632611964863031   T   T   T
  0.1060672819608856  0.4077342167123001  0.9082991422342768   T   T   T
  0.6046634563888256  0.4045046265379929  0.1632435479549033   T   T   T
  0.5996859342860144  0.4081948651701950  0.4116267113023465   T   T   T
  0.6056289351643046  0.3980536078518505  0.6633431262357996   T   T   T
  0.5955192545899637  0.4219764116714048  0.9114400053873235   T   T   T
  0.3512224863837008  0.4186065602367521  0.0364584394083091   T   T   T
  0.3457755585916503  0.4177947706730697  0.2859888776866290   T   T   T
  0.3460056751815797  0.4186946424564010  0.5407109091066792   T   T   T
  0.3564543738402506  0.4280304613423541  0.7858185380397669   T   T   T
  0.8511934779359150  0.4204984945101424  0.0357107640622760   T   T   T
  0.8457649413164470  0.4180590261163656  0.2856335875084206   T   T   T
  0.8563681143797269  0.4189229457636288  0.5404335426043776   T   T   T
  0.8457401417397213  0.4180914512213171  0.7858419316785245   T   T   T
  0.3462759930517151  0.4085892290712553  0.1634448357758597   T   T   T
  0.3521499761542378  0.4021240882445050  0.4113107786285291   T   T   T
  0.3561087163828514  0.4073861168746386  0.6631923357383589   T   T   T
  0.3461817824837575  0.4081953222269192  0.9086781902296356   T   T   T
  0.8547325847115851  0.4044464274841709  0.1632157577244507   T   T   T
  0.8456790242146042  0.4181147742835239  0.4085528555522968   T   T   T
  0.8559769724866405  0.3986055583954612  0.6632590541053541   T   T   T
  0.8459595757988736  0.4074594009646963  0.9085279144013142   T   T   T
  0.1790779571293423  0.4045891456587780  0.0372156714756348   T   T   T
  0.1789686993724826  0.4078828509450266  0.2856870947190329   T   T   T
  0.1793933270131783  0.4084278040290540  0.5407418183306545   T   T   T
  0.1791356469859198  0.4084636260752543  0.7857179202664897   T   T   T
  0.6793356922228417  0.4082172712037352  0.0395864648795128   T   T   T
  0.6790157337697157  0.4085402858471217  0.2857420283946793   T   T   T
  0.6801064670503185  0.4083517103886884  0.5406809030237909   T   T   T
  0.6792943724825461  0.4075115481846097  0.7856523987232152   T   T   T
  0.1898356446752556  0.4287444340858322  0.1630043499387296   T   T   T
  0.1852168434955540  0.4139760924666134  0.4110313803231874   T   T   T
  0.1897190579290790  0.4291668448417176  0.6629717536196396   T   T   T
  0.1900169265034514  0.4191269409156355  0.9088231775206602   T   T   T
  0.6897202893933969  0.4184466898730846  0.1635265361919137   T   T   T
  0.6897273345235888  0.4289614774738479  0.4094535082909206   T   T   T
  0.6901008242690971  0.4085375489245986  0.6631737339436721   T   T   T
  0.6794618074260594  0.4384584952976644  0.9082662777922526   T   T   T
  0.4365796375896945  0.4077935038093651  0.0374269699151199   T   T   T
  0.4296636104131771  0.4085060684070541  0.2857631799166773   T   T   T
  0.4301777373105016  0.4183485192354529  0.5408361198502546   T   T   T
  0.4398516448465588  0.4088388078182777  0.7856565222089534   T   T   T
  0.9397758922560284  0.4086418396372395  0.0310283924573956   T   T   T
  0.9296576056267315  0.4084136682598263  0.2856068736699978   T   T   T
  0.9403146544898000  0.4088591723823860  0.5403899031189512   T   T   T
  0.9301397124390147  0.4080723588413756  0.7856651138225608   T   T   T
  0.4292061449391338  0.4292922501485397  0.1632800303998482   T   T   T
  0.4348487636296401  0.4234250276109113  0.4163501625788449   T   T   T
  0.4392908401308094  0.4293446585434129  0.6632365734055382   T   T   T
  0.4297420867033672  0.4281727421753918  0.9083274472312119   T   T   T
  0.9391050584148110  0.4291561655344868  0.1628753428921259   T   T   T
  0.9289589176947949  0.4218916775647751  0.4115798235055321   T   T   T
  0.9345102460260549  0.4333240918053779  0.6625476821877395   T   T   T
  0.9291022300781705  0.4291677954304998  0.9083575872131747   T   T   T
  0.2258624058758965  0.3984273765905529  0.1016387558934559   T   T   T
  0.2261668402185568  0.4078613904899803  0.3471664246391631   T   T   T
  0.2265308321351317  0.4080184855711556  0.6016728718016444   T   T   T
  0.2262521723086252  0.4079019777763838  0.8468196311008810   T   T   T
  0.7263298031470218  0.4078336317417476  0.1017938700472856   T   T   T
  0.7261046032531775  0.4083479818172371  0.3470989447790587   T   T   T
  0.7259024502917872  0.4084834336342097  0.6018117028522421   T   T   T
  0.7253643667504234  0.4086840940178303  0.8471626881400003   T   T   T
  0.2262200776028750  0.4084646322493404  0.2246273332099783   T   T   T
  0.2257905226612959  0.4088282029015128  0.4792612275341701   T   T   T
  0.2273316073513859  0.4177934827002144  0.7248746928147440   T   T   T
  0.2257937605453861  0.4177055381370062  0.9696082178614212   T   T   T
  0.7261206108774300  0.4182106340704108  0.2243556715216341   T   T   T
  0.7263719883630535  0.4085883690569743  0.4794466143452452   T   T   T
  0.7265733072905579  0.4088104940243793  0.7244448945428127   T   T   T
  0.7250649031283989  0.4184163122871924  0.9704931653841303   T   T   T
  0.4760711355002238  0.4175644474495402  0.1018526718970354   T   T   T
  0.4760943199003116  0.4184885857107085  0.3485292241797156   T   T   T
  0.4765652440755540  0.4178892624823823  0.6009226218753088   T   T   T
  0.4763809521712958  0.4086335153754116  0.8469066175162234   T   T   T
  0.9764314677858034  0.4147063524919111  0.0982005883392178   T   T   T
  0.9758789905162385  0.4186233000881048  0.3473180921969179   T   T   T
  0.9766922564400824  0.4178393213007326  0.6016951550898281   T   T   T
  0.9759759208910621  0.4173312476121243  0.8470416218952428   T   T   T
  0.4763717209398696  0.4179014603373899  0.2244545717635039   T   T   T
  0.4757365445764343  0.4188084792958720  0.4794161901804075   T   T   T
  0.4771736117421938  0.4176436193300623  0.7247038088141049   T   T   T
  0.4763559998285514  0.3983303598934816  0.9693560589517658   T   T   T
  0.9769145922767327  0.4177154677758064  0.2245844995705373   T   T   T
  0.9753640196268893  0.4176888921141084  0.4697801225835830   T   T   T
  0.9766820566409585  0.4178912489577239  0.7244666513518104   T   T   T
  0.9761705936941764  0.4087287465542274  0.9694747765435534   T   T   T
  0.0592405693552158  0.4182105484391027  0.1017013995154421   T   T   T
  0.0599864133529556  0.4286954970401445  0.3469968900917731   T   T   T
  0.0594120671670457  0.4188630724441549  0.6018023737017901   T   T   T
  0.0597461334372146  0.4288466788427792  0.8468941814984787   T   T   T
  0.5598095661170805  0.4280221653197330  0.1019322878547830   T   T   T
  0.5594982440670376  0.4290023157743194  0.3469881097031189   T   T   T
  0.5591374964277491  0.4178605601165677  0.6019758023385229   T   T   T
  0.5586579400292535  0.4177543411533393  0.8471484635421245   T   T   T
  0.0586959378852625  0.4192150369817556  0.2245856961963467   T   T   T
  0.0596657399622878  0.4294830726994024  0.4696492325843074   T   T   T
  0.0586522087424156  0.4191174179843267  0.7245031245851616   T   T   T
  0.0598917717560402  0.4293636380136545  0.9696501645057345   T   T   T
  0.5585972809943984  0.4189498549712694  0.2244393808442862   T   T   T
  0.5589999494379088  0.4187771840305563  0.4793949160009491   T   T   T
  0.5593480454076187  0.4182404876666995  0.7244973646575683   T   T   T
  0.5594204084823693  0.4217385621454831  0.9727471368716251   T   T   T
  0.3092113798562818  0.4180346058708320  0.1015781886182497   T   T   T
  0.3096447225961215  0.4181023369211871  0.3469022649297104   T   T   T
  0.3089340356134448  0.4178524520013159  0.6018719377505296   T   T   T
  0.3095441434233869  0.4190582179145608  0.8467952263980305   T   T   T
  0.8100801614032288  0.4195052910056907  0.1015009334907481   T   T   T
  0.8092825580752884  0.4184754184496922  0.3470055600601079   T   T   T
  0.8098995323145549  0.4189849590663891  0.6018528812937921   T   T   T
  0.8089217968366296  0.4188004275130509  0.8466580030007144   T   T   T
  0.3087594790606717  0.4082281356669876  0.2243987591925549   T   T   T
  0.3087588979858905  0.4177046301416641  0.4792519762845835   T   T   T
  0.3091297980564980  0.4188436942972626  0.7245809635982119   T   T   T
  0.3093919767324543  0.4085863290679324  0.9695050965385983   T   T   T
  0.8093207348685009  0.4187472234103017  0.2246182450854060   T   T   T
  0.8093633046958345  0.4115258666022588  0.4761347492569756   T   T   T
  0.8090058001230226  0.4178319485852364  0.7244858309374512   T   T   T
  0.8019787364859757  0.4184930351359371  0.9727310808803908   T   T   T
  0.4990217579158345  0.6525091961744588  0.4486838118134891   T   T   T
  0.4176338714021188  0.6934531437934084  0.4592020006760090   T   T   T
  0.5483429683583116  0.6528573778361176  0.5101615041700170   T   T   T
  0.3694675184225398  0.6540466685955388  0.5105242243482244   T   T   T
  0.6189722989060340  0.6031906881773187  0.5004992280056159   T   T   T
  0.0029274048901288  0.5179064032520385  0.4513459226952573   T   T   T
  0.0153641688459999  0.5210112769942684  0.9489339474519429   T   T   T
  0.1567644006099884  0.5199764872044212  0.1327030837633612   T   T   T
  0.1577087128046739  0.5228103310816409  0.6300387873156348   T   T   T
  0.6586061328322992  0.5224422739265517  0.3807804756493170   T   T   T
  0.6556741515357959  0.5294120799027207  0.8778708933332169   T   T   T
  0.4320702387035246  0.3155688884214429  0.9491333156032327   T   T   T
  0.0509017250606206  0.3216702819081202  0.1811104017365670   T   T   T
  0.0510367073095492  0.3263177752199657  0.6726975682010381   T   T   T
  0.0610201505651991  0.3172124006482296  0.9282803976493862   T   T   T
  0.5505544048925892  0.3186726949360933  0.1812924319951175   T   T   T
  0.5623118747384276  0.3139131507839044  0.4262472624238668   T   T   T
  0.5510075797863544  0.3161331751689178  0.6828831737238422   T   T   T
  0.3007492831764102  0.3177941064470067  0.4264053401928631   T   T   T
  0.3005988237865460  0.3189467446311455  0.6706471728919625   T   T   T
  0.8005691712316033  0.3188834447962838  0.1707499580531294   T   T   T
  0.8010083970920006  0.3162037235076116  0.6726776451086875   T   T   T
  0.8014605572203650  0.3188441469081248  0.9254859725694180   T   T   T
  0.3956865594605681  0.5279870967510314  0.1812459846068410   T   T   T
  0.3944472796784308  0.5197750353436009  0.6834441733522639   T   T   T
  0.3944733148314046  0.5199678453683017  0.9278804619484549   T   T   T
  0.8943845381376603  0.5200919094237519  0.1829606686399485   T   T   T
  0.8878287989921096  0.5248793813220461  0.6781949039003630   T   T   T
  0.8839981558819586  0.5175094025846958  0.9337216450741517   T   T   T
  0.4823741718787304  0.5981485742708693  0.4338102991709220   T   T   T
  0.5295433931623152  0.6728101873094831  0.4031940517548306   T   T   T
  0.3898181503303196  0.6913912986571117  0.4103773600037913   T   T   T
  0.5707966810718832  0.7024773411377643  0.5202815899179063   T   T   T
  0.5178011909074208  0.6376523891641180  0.5552280561463723   T   T   T
  0.4494488486117862  0.7628353881703819  0.5284306831218122   T   T   T
  0.3860755442872574  0.7885092606630124  0.4720956852056019   T   T   T
  0.6993061161983294  0.6708232658541372  0.5479151913950993   T   T   T
  0.7365144280401650  0.5927787834696571  0.5205700353443616   T   T   T
  0.2990750577880869  0.5819775871262344  0.5193538089505708   T   T   T
  0.4397020868091013  0.7645584518302291  0.4784808285348477   T   T   T
  0.6902980133107176  0.6226854860403331  0.5305771311569654   T   T   T
  0.3331841362282794  0.4837287981031168  0.0713443112293202   T   T   T
  0.3332961511668686  0.4896417049676904  0.8264570428755665   T   T   T
  0.8332918017870118  0.4895175207198923  0.0714103802972570   T   T   T
  0.8332931870544100  0.4895397299204302  0.5714355126302791   T   T   T
  0.2024047397480715  0.3368710105268710  0.0714096504833642   T   T   T
  0.2015337128092297  0.3418580157162041  0.3262180107979584   T   T   T
  0.2023639290570030  0.3430196963891254  0.8247658774744647   T   T   T
  0.7023205298273182  0.3427977138280810  0.0713767636553255   T   T   T
  0.7023669501483517  0.3468553894130149  0.3263975616256197   T   T   T
  0.7022876544355775  0.3427794279401478  0.8265037840904526   T   T   T
  0.4642133526053177  0.3470702730272326  0.0715062844661348   T   T   T
  0.4633746233843807  0.3519194779378691  0.3262980962295098   T   T   T
  0.9633656468183288  0.3518759866498196  0.3263187931918888   T   T   T
  0.9642160649631619  0.3470625694678865  0.8264733702636095   T   T   T
  0.0594630255135152  0.5101800303886220  0.4592065512682914   T   T   T
  0.0713286994119410  0.5100831628015556  0.9591917007135522   T   T   T
  0.2023378193778458  0.4999963581231266  0.1530812945412378   T   T   T
  0.2022668421311669  0.5002098455089842  0.6530628310064489   T   T   T
  0.7023075062667832  0.5000674427602718  0.4080881032923283   T   T   T
  0.6905364440536246  0.5101589473205410  0.9081839925405407   T   T   T
  0.4879399004525248  0.3265782141884214  0.9591228460234531   T   T   T
  0.1070897344863398  0.3365271826898489  0.1734607356971452   T   T   T
  0.1071128217732392  0.3365491723893994  0.6632862947804165   T   T   T
  0.1070805614648383  0.3365895970834000  0.9081818976807127   T   T   T
  0.6070521880563862  0.3265958769373951  0.1734432185488544   T   T   T
  0.6071095027221387  0.3366590639952189  0.4081799567655085   T   T   T
  0.6070292310017075  0.3264161742292511  0.6734476793072662   T   T   T
  0.3568560930635442  0.3257756892476310  0.4132967106572903   T   T   T
  0.3571613795307974  0.3306840469603248  0.6632927762874709   T   T   T
  0.8563092841294173  0.3315625751908575  0.1632204661155774   T   T   T
  0.8571047160939054  0.3265330334809116  0.6632688972060360   T   T   T
  0.8569930126978877  0.3365248471909847  0.9183676412939860   T   T   T
  0.4413514272137428  0.5050949657039276  0.1632156507242858   T   T   T
  0.4406771655982014  0.5041651882920596  0.6631467660430451   T   T   T
  0.4404562085495629  0.4999998453343955  0.9082083697305902   T   T   T
  0.9414002919591216  0.5049228481188174  0.1631612496200031   T   T   T
  0.9395454006254205  0.5052729869961360  0.6633557387757677   T   T   T
  0.9285098368100064  0.5001746550316626  0.9081853239763183   T   T   T
  0.3331778191089880  0.6012237621902682  0.4846853155686507   T   T   T
  0.3690092628339790  0.6733037907639502  0.5713511271785809   T   T   T
  0.6070485182076877  0.5501678329718139  0.4744436598273732   T   T   T
 
  0.00000000E+00  0.00000000E+00  0.00000000E+00
  0.00000000E+00  0.00000000E+00  0.00000000E+00
  0.00000000E+00  0.00000000E+00  0.00000000E+00
  0.00000000E+00  0.00000000E+00  0.00000000E+00
  0.00000000E+00  0.00000000E+00  0.00000000E+00
  0.00000000E+00  0.00000000E+00  0.00000000E+00
  0.00000000E+00  0.00000000E+00  0.00000000E+00
  0.00000000E+00  0.00000000E+00  0.00000000E+00
  0.00000000E+00  0.00000000E+00  0.00000000E+00
  0.00000000E+00  0.00000000E+00  0.00000000E+00
  0.00000000E+00  0.00000000E+00  0.00000000E+00
  0.00000000E+00  0.00000000E+00  0.00000000E+00
  0.00000000E+00  0.00000000E+00  0.00000000E+00
  0.00000000E+00  0.00000000E+00  0.00000000E+00
  0.00000000E+00  0.00000000E+00  0.00000000E+00
  0.00000000E+00  0.00000000E+00  0.00000000E+00
  0.00000000E+00  0.00000000E+00  0.00000000E+00
  0.00000000E+00  0.00000000E+00  0.00000000E+00
  0.00000000E+00  0.00000000E+00  0.00000000E+00
  0.00000000E+00  0.00000000E+00  0.00000000E+00
  0.00000000E+00  0.00000000E+00  0.00000000E+00
  0.00000000E+00  0.00000000E+00  0.00000000E+00
  0.00000000E+00  0.00000000E+00  0.00000000E+00
  0.00000000E+00  0.00000000E+00  0.00000000E+00
  0.00000000E+00  0.00000000E+00  0.00000000E+00
  0.00000000E+00  0.00000000E+00  0.00000000E+00
  0.00000000E+00  0.00000000E+00  0.00000000E+00
  0.00000000E+00  0.00000000E+00  0.00000000E+00
  0.00000000E+00  0.00000000E+00  0.00000000E+00
  0.00000000E+00  0.00000000E+00  0.00000000E+00
  0.00000000E+00  0.00000000E+00  0.00000000E+00
  0.00000000E+00  0.00000000E+00  0.00000000E+00
  0.00000000E+00  0.00000000E+00  0.00000000E+00
  0.00000000E+00  0.00000000E+00  0.00000000E+00
  0.00000000E+00  0.00000000E+00  0.00000000E+00
  0.00000000E+00  0.00000000E+00  0.00000000E+00
  0.00000000E+00  0.00000000E+00  0.00000000E+00
  0.00000000E+00  0.00000000E+00  0.00000000E+00
  0.00000000E+00  0.00000000E+00  0.00000000E+00
  0.00000000E+00  0.00000000E+00  0.00000000E+00
  0.00000000E+00  0.00000000E+00  0.00000000E+00
  0.00000000E+00  0.00000000E+00  0.00000000E+00
  0.00000000E+00  0.00000000E+00  0.00000000E+00
  0.00000000E+00  0.00000000E+00  0.00000000E+00
  0.00000000E+00  0.00000000E+00  0.00000000E+00
  0.00000000E+00  0.00000000E+00  0.00000000E+00
  0.00000000E+00  0.00000000E+00  0.00000000E+00
  0.00000000E+00  0.00000000E+00  0.00000000E+00
  0.00000000E+00  0.00000000E+00  0.00000000E+00
  0.00000000E+00  0.00000000E+00  0.00000000E+00
  0.00000000E+00  0.00000000E+00  0.00000000E+00
  0.00000000E+00  0.00000000E+00  0.00000000E+00
  0.00000000E+00  0.00000000E+00  0.00000000E+00
  0.00000000E+00  0.00000000E+00  0.00000000E+00
  0.00000000E+00  0.00000000E+00  0.00000000E+00
  0.00000000E+00  0.00000000E+00  0.00000000E+00
  0.00000000E+00  0.00000000E+00  0.00000000E+00
  0.00000000E+00  0.00000000E+00  0.00000000E+00
  0.00000000E+00  0.00000000E+00  0.00000000E+00
  0.00000000E+00  0.00000000E+00  0.00000000E+00
  0.00000000E+00  0.00000000E+00  0.00000000E+00
  0.00000000E+00  0.00000000E+00  0.00000000E+00
  0.00000000E+00  0.00000000E+00  0.00000000E+00
  0.00000000E+00  0.00000000E+00  0.00000000E+00
  0.00000000E+00  0.00000000E+00  0.00000000E+00
  0.00000000E+00  0.00000000E+00  0.00000000E+00
  0.00000000E+00  0.00000000E+00  0.00000000E+00
  0.00000000E+00  0.00000000E+00  0.00000000E+00
  0.00000000E+00  0.00000000E+00  0.00000000E+00
  0.00000000E+00  0.00000000E+00  0.00000000E+00
  0.00000000E+00  0.00000000E+00  0.00000000E+00
  0.00000000E+00  0.00000000E+00  0.00000000E+00
  0.00000000E+00  0.00000000E+00  0.00000000E+00
  0.00000000E+00  0.00000000E+00  0.00000000E+00
  0.00000000E+00  0.00000000E+00  0.00000000E+00
  0.00000000E+00  0.00000000E+00  0.00000000E+00
  0.00000000E+00  0.00000000E+00  0.00000000E+00
  0.00000000E+00  0.00000000E+00  0.00000000E+00
  0.00000000E+00  0.00000000E+00  0.00000000E+00
  0.00000000E+00  0.00000000E+00  0.00000000E+00
  0.00000000E+00  0.00000000E+00  0.00000000E+00
  0.00000000E+00  0.00000000E+00  0.00000000E+00
  0.00000000E+00  0.00000000E+00  0.00000000E+00
  0.00000000E+00  0.00000000E+00  0.00000000E+00
  0.00000000E+00  0.00000000E+00  0.00000000E+00
  0.00000000E+00  0.00000000E+00  0.00000000E+00
  0.00000000E+00  0.00000000E+00  0.00000000E+00
  0.00000000E+00  0.00000000E+00  0.00000000E+00
  0.00000000E+00  0.00000000E+00  0.00000000E+00
  0.00000000E+00  0.00000000E+00  0.00000000E+00
  0.00000000E+00  0.00000000E+00  0.00000000E+00
  0.00000000E+00  0.00000000E+00  0.00000000E+00
  0.00000000E+00  0.00000000E+00  0.00000000E+00
  0.00000000E+00  0.00000000E+00  0.00000000E+00
  0.00000000E+00  0.00000000E+00  0.00000000E+00
  0.00000000E+00  0.00000000E+00  0.00000000E+00
  0.00000000E+00  0.00000000E+00  0.00000000E+00
  0.00000000E+00  0.00000000E+00  0.00000000E+00
  0.00000000E+00  0.00000000E+00  0.00000000E+00
  0.00000000E+00  0.00000000E+00  0.00000000E+00
  0.00000000E+00  0.00000000E+00  0.00000000E+00
  0.00000000E+00  0.00000000E+00  0.00000000E+00
  0.00000000E+00  0.00000000E+00  0.00000000E+00
  0.00000000E+00  0.00000000E+00  0.00000000E+00
  0.00000000E+00  0.00000000E+00  0.00000000E+00
  0.00000000E+00  0.00000000E+00  0.00000000E+00
  0.00000000E+00  0.00000000E+00  0.00000000E+00
  0.00000000E+00  0.00000000E+00  0.00000000E+00
  0.00000000E+00  0.00000000E+00  0.00000000E+00
  0.00000000E+00  0.00000000E+00  0.00000000E+00
  0.00000000E+00  0.00000000E+00  0.00000000E+00
  0.00000000E+00  0.00000000E+00  0.00000000E+00
  0.00000000E+00  0.00000000E+00  0.00000000E+00
  0.00000000E+00  0.00000000E+00  0.00000000E+00
  0.00000000E+00  0.00000000E+00  0.00000000E+00
  0.00000000E+00  0.00000000E+00  0.00000000E+00
  0.00000000E+00  0.00000000E+00  0.00000000E+00
  0.00000000E+00  0.00000000E+00  0.00000000E+00
  0.00000000E+00  0.00000000E+00  0.00000000E+00
  0.00000000E+00  0.00000000E+00  0.00000000E+00
  0.00000000E+00  0.00000000E+00  0.00000000E+00
  0.00000000E+00  0.00000000E+00  0.00000000E+00
  0.00000000E+00  0.00000000E+00  0.00000000E+00
  0.00000000E+00  0.00000000E+00  0.00000000E+00
  0.00000000E+00  0.00000000E+00  0.00000000E+00
  0.00000000E+00  0.00000000E+00  0.00000000E+00
  0.00000000E+00  0.00000000E+00  0.00000000E+00
  0.00000000E+00  0.00000000E+00  0.00000000E+00
  0.00000000E+00  0.00000000E+00  0.00000000E+00
  0.00000000E+00  0.00000000E+00  0.00000000E+00
  0.00000000E+00  0.00000000E+00  0.00000000E+00
  0.00000000E+00  0.00000000E+00  0.00000000E+00
  0.00000000E+00  0.00000000E+00  0.00000000E+00
  0.00000000E+00  0.00000000E+00  0.00000000E+00
  0.00000000E+00  0.00000000E+00  0.00000000E+00
  0.00000000E+00  0.00000000E+00  0.00000000E+00
  0.00000000E+00  0.00000000E+00  0.00000000E+00
  0.00000000E+00  0.00000000E+00  0.00000000E+00
  0.00000000E+00  0.00000000E+00  0.00000000E+00
  0.00000000E+00  0.00000000E+00  0.00000000E+00
  0.00000000E+00  0.00000000E+00  0.00000000E+00
  0.00000000E+00  0.00000000E+00  0.00000000E+00
  0.00000000E+00  0.00000000E+00  0.00000000E+00
  0.00000000E+00  0.00000000E+00  0.00000000E+00
  0.00000000E+00  0.00000000E+00  0.00000000E+00
  0.00000000E+00  0.00000000E+00  0.00000000E+00
  0.00000000E+00  0.00000000E+00  0.00000000E+00
  0.00000000E+00  0.00000000E+00  0.00000000E+00
  0.00000000E+00  0.00000000E+00  0.00000000E+00
  0.00000000E+00  0.00000000E+00  0.00000000E+00
  0.00000000E+00  0.00000000E+00  0.00000000E+00
  0.00000000E+00  0.00000000E+00  0.00000000E+00
  0.00000000E+00  0.00000000E+00  0.00000000E+00
  0.00000000E+00  0.00000000E+00  0.00000000E+00
  0.00000000E+00  0.00000000E+00  0.00000000E+00
  0.00000000E+00  0.00000000E+00  0.00000000E+00
  0.00000000E+00  0.00000000E+00  0.00000000E+00
  0.00000000E+00  0.00000000E+00  0.00000000E+00
  0.00000000E+00  0.00000000E+00  0.00000000E+00
  0.00000000E+00  0.00000000E+00  0.00000000E+00
  0.00000000E+00  0.00000000E+00  0.00000000E+00
  0.00000000E+00  0.00000000E+00  0.00000000E+00
  0.00000000E+00  0.00000000E+00  0.00000000E+00
  0.00000000E+00  0.00000000E+00  0.00000000E+00
  0.00000000E+00  0.00000000E+00  0.00000000E+00
  0.00000000E+00  0.00000000E+00  0.00000000E+00
  0.00000000E+00  0.00000000E+00  0.00000000E+00
  0.00000000E+00  0.00000000E+00  0.00000000E+00
  0.00000000E+00  0.00000000E+00  0.00000000E+00
  0.00000000E+00  0.00000000E+00  0.00000000E+00
  0.00000000E+00  0.00000000E+00  0.00000000E+00
  0.00000000E+00  0.00000000E+00  0.00000000E+00
  0.00000000E+00  0.00000000E+00  0.00000000E+00
  0.00000000E+00  0.00000000E+00  0.00000000E+00
  0.00000000E+00  0.00000000E+00  0.00000000E+00
  0.00000000E+00  0.00000000E+00  0.00000000E+00
  0.00000000E+00  0.00000000E+00  0.00000000E+00
  0.00000000E+00  0.00000000E+00  0.00000000E+00
  0.00000000E+00  0.00000000E+00  0.00000000E+00
  0.00000000E+00  0.00000000E+00  0.00000000E+00
  0.00000000E+00  0.00000000E+00  0.00000000E+00
  0.00000000E+00  0.00000000E+00  0.00000000E+00
  0.00000000E+00  0.00000000E+00  0.00000000E+00
  0.00000000E+00  0.00000000E+00  0.00000000E+00
  0.00000000E+00  0.00000000E+00  0.00000000E+00
  0.00000000E+00  0.00000000E+00  0.00000000E+00
  0.00000000E+00  0.00000000E+00  0.00000000E+00
  0.00000000E+00  0.00000000E+00  0.00000000E+00
  0.00000000E+00  0.00000000E+00  0.00000000E+00
  0.00000000E+00  0.00000000E+00  0.00000000E+00
  0.00000000E+00  0.00000000E+00  0.00000000E+00
  0.00000000E+00  0.00000000E+00  0.00000000E+00
  0.00000000E+00  0.00000000E+00  0.00000000E+00
  0.00000000E+00  0.00000000E+00  0.00000000E+00
  0.00000000E+00  0.00000000E+00  0.00000000E+00
  0.00000000E+00  0.00000000E+00  0.00000000E+00
  0.00000000E+00  0.00000000E+00  0.00000000E+00
  0.00000000E+00  0.00000000E+00  0.00000000E+00
  0.00000000E+00  0.00000000E+00  0.00000000E+00
  0.00000000E+00  0.00000000E+00  0.00000000E+00
  0.00000000E+00  0.00000000E+00  0.00000000E+00
  0.00000000E+00  0.00000000E+00  0.00000000E+00
  0.00000000E+00  0.00000000E+00  0.00000000E+00
  0.00000000E+00  0.00000000E+00  0.00000000E+00
  0.00000000E+00  0.00000000E+00  0.00000000E+00
  0.00000000E+00  0.00000000E+00  0.00000000E+00
  0.00000000E+00  0.00000000E+00  0.00000000E+00
  0.00000000E+00  0.00000000E+00  0.00000000E+00
  0.00000000E+00  0.00000000E+00  0.00000000E+00
  0.00000000E+00  0.00000000E+00  0.00000000E+00
