C H N O                                 
   1.00000000000000     
    17.0814999999999984    0.0000000000000000    0.0000000000000000
     0.0000000000000000   21.3509999999999991    0.0000000000000000
     0.0000000000000000    0.0000000000000000   19.7240000000000002
   C    H    N    O 
   133    42     2    67
Selective dynamics
Direct
  0.0363696403743958  0.4169066192542701  0.0619444195697696   T   T   T
  0.0363708431522127  0.4169049471931956  0.5619441849516775   T   T   T
  0.5363718368847898  0.4168955603100102  0.0619444543304866   T   T   T
  0.5363778076862076  0.4168646524184680  0.5619431119218135   T   T   T
  0.0459305717318301  0.4170905484064491  0.3125317432232180   T   T   T
  0.0459257348208553  0.4170838135214439  0.8125336256770694   T   T   T
  0.5459142479530570  0.4170731634787685  0.3125328383653780   T   T   T
  0.5459249364976628  0.4170832312004720  0.8125334926254340   T   T   T
  0.0360342737977959  0.4345925042775889  0.1883322416925779   T   T   T
  0.0360347791368270  0.4345927153915454  0.6883326544739745   T   T   T
  0.5360336410786601  0.4345933258986889  0.1883331029691675   T   T   T
  0.5360343431530836  0.4345926008713263  0.6883326603608495   T   T   T
  0.0404855099191792  0.4314459324860280  0.4378770535928709   T   T   T
  0.0404898749543321  0.4314364350450575  0.9378736008325390   T   T   T
  0.5404566305184488  0.4314150378235837  0.4378775894699416   T   T   T
  0.5404845626001560  0.4314432085736186  0.9378791556837669   T   T   T
  0.2862699500271404  0.4351139176661576  0.0631699823947187   T   T   T
  0.2862696418371726  0.4351126298066035  0.5631697664341715   T   T   T
  0.7862700209774616  0.4351138267542893  0.0631701204634396   T   T   T
  0.7862701107443044  0.4351119781563852  0.5631697841113805   T   T   T
  0.2858856555685065  0.4262592316464477  0.3130894162398903   T   T   T
  0.2858824666015352  0.4262550732327881  0.8130863757079609   T   T   T
  0.7858827112418680  0.4262573726374228  0.3130887273277025   T   T   T
  0.7858826833769612  0.4262544864822218  0.8130865020232747   T   T   T
  0.2867822913089384  0.4255670508573601  0.1871276564687747   T   T   T
  0.2867840379131792  0.4255630409906459  0.6871296323815486   T   T   T
  0.7867819956855513  0.4255661836661488  0.1871275861473265   T   T   T
  0.7867834521465795  0.4255665281933503  0.6871300996420260   T   T   T
  0.2959598416551188  0.4257956603280277  0.4372365531344400   T   T   T
  0.2959686138161146  0.4257816660621003  0.9372288801757591   T   T   T
  0.7959681472394635  0.4257894423544712  0.4372259402896645   T   T   T
  0.7959677916790540  0.4257817702129429  0.9372298532920098   T   T   T
  0.1231349163186621  0.4196588170191191  0.0625892274015030   T   T   T
  0.1231347588412035  0.4196556570467109  0.5625899026272450   T   T   T
  0.6231303881626857  0.4196463129915742  0.0625894655065977   T   T   T
  0.6231105705959408  0.4196174424739425  0.5625915897972362   T   T   T
  0.1304183488619799  0.4258165049111042  0.3132212035868207   T   T   T
  0.1304172640191865  0.4258131838100851  0.8132214877578221   T   T   T
  0.6304133794508928  0.4258151318098342  0.3132200604732702   T   T   T
  0.6304168761167972  0.4258134229742154  0.8132219118501638   T   T   T
  0.1196315025575743  0.4261268341424724  0.1868294783530189   T   T   T
  0.1196315846321809  0.4261254071099145  0.6868302008185623   T   T   T
  0.6196319345551089  0.4261262365362981  0.1868301053908041   T   T   T
  0.6196302547085679  0.4261268523179069  0.6868313531176042   T   T   T
  0.1296834602893639  0.4257197066538723  0.4368191801981141   T   T   T
  0.1296888549638879  0.4257158065219429  0.9368190225195079   T   T   T
  0.6296468576992282  0.4257252194234766  0.4368216503716056   T   T   T
  0.6296863127348686  0.4257161565549978  0.9368192094560257   T   T   T
  0.3701378868615066  0.4255449131248099  0.0618797000708895   T   T   T
  0.3701362505155927  0.4255475064168195  0.5618798728448837   T   T   T
  0.8701375937643832  0.4255450567106891  0.0618797020895201   T   T   T
  0.8701372396778950  0.4255469926139455  0.5618796042902900   T   T   T
  0.3699437660499285  0.4170011085873213  0.3117912566650602   T   T   T
  0.3699361219380535  0.4169976816819698  0.8117935090114088   T   T   T
  0.8699362804200916  0.4169996403628105  0.3117924915215866   T   T   T
  0.8699357965190799  0.4169981841659478  0.8117932824364189   T   T   T
  0.3729422384448497  0.4230960461445434  0.1874891607779361   T   T   T
  0.3729432066095484  0.4230938080270263  0.6874887606068540   T   T   T
  0.8729404515286063  0.4230960976610874  0.1874879070659645   T   T   T
  0.8729411673533889  0.4230972919785643  0.6874909718380096   T   T   T
  0.3807167540779659  0.4266232390898068  0.4379572347043492   T   T   T
  0.3807140613468931  0.4266270929216276  0.9379617335830659   T   T   T
  0.8807139565660975  0.4266293513729380  0.4379623346038954   T   T   T
  0.8807138651373165  0.4266271250112368  0.9379616843428948   T   T   T
  0.1660624060256239  0.4450251831705430  0.1245486905022233   T   T   T
  0.1660603494574744  0.4450240409283239  0.6245515733295619   T   T   T
  0.6660604498815772  0.4450236612865552  0.1245491327782204   T   T   T
  0.6660583177384538  0.4450184321305954  0.6245524347830411   T   T   T
  0.1672209497538191  0.4533204518670999  0.3744083996364651   T   T   T
  0.1672193855135546  0.4533195130727847  0.8744082478983373   T   T   T
  0.6672198023893401  0.4533210316845455  0.3744049874530120   T   T   T
  0.6672191461794839  0.4533198976302089  0.8744085858389923   T   T   T
  0.1668509926178317  0.4264950334669564  0.2492123408391578   T   T   T
  0.1668507793507601  0.4264918907427173  0.7492125485182513   T   T   T
  0.6668495650327060  0.4264937444402719  0.2492120902910102   T   T   T
  0.6668504657091958  0.4264933733924323  0.7492124339536446   T   T   T
  0.1674770382138746  0.4263940455170498  0.0004933495688562   T   T   T
  0.1674785262421850  0.4263943860205899  0.5004931005530295   T   T   T
  0.6674737219972400  0.4263921868307392  0.0004946933166252   T   T   T
  0.6674593873353558  0.4263932547016935  0.5004965403384674   T   T   T
  0.4164497490092458  0.4255047297612577  0.1243460563192968   T   T   T
  0.4164489796397319  0.4255042104671105  0.6243456238916067   T   T   T
  0.9164496570693785  0.4255048016210807  0.1243460288994811   T   T   T
  0.9164511159161748  0.4255071043966225  0.6243450377388129   T   T   T
  0.4173102655550736  0.4258071103322720  0.3740989291636367   T   T   T
  0.4173087301700988  0.4258131184468255  0.8741004348575032   T   T   T
  0.9173093784008159  0.4258135949672877  0.3741000390945786   T   T   T
  0.9173091005941956  0.4258133769787875  0.8741005329784315   T   T   T
  0.4159396831080926  0.4438924066044336  0.2504314883131258   T   T   T
  0.4159395999893931  0.4438908188610426  0.7504274953849901   T   T   T
  0.9159408789679588  0.4438904593849813  0.2504244670973250   T   T   T
  0.9159409937560739  0.4438927476349903  0.7504267307166330   T   T   T
  0.4165397870509651  0.4531761719494938  0.0006457126102930   T   T   T
  0.4165402144416959  0.4531749130542835  0.5006471442916194   T   T   T
  0.9165397025618418  0.4531766951176763  0.0006457371662663   T   T   T
  0.9165405047874344  0.4531770934723269  0.5006456522543772   T   T   T
  0.9995293269038967  0.4445360836557342  0.1242475462218664   T   T   T
  0.9995326655141952  0.4445353682644111  0.6242483896775397   T   T   T
  0.4995307370909856  0.4445347012537582  0.1242477188946154   T   T   T
  0.4995318727517031  0.4445234128638091  0.6242496196561689   T   T   T
  0.0003901530168022  0.4449862734342389  0.3740562460217660   T   T   T
  0.0003904005882376  0.4449847995794443  0.8740572001511495   T   T   T
  0.5003790556580512  0.4449832739233983  0.3740486416051425   T   T   T
  0.5003876605607189  0.4449852908694183  0.8740558759692050   T   T   T
  0.0001984170575327  0.4261432132540648  0.2492283460407805   T   T   T
  0.0001974221952850  0.4261422834428785  0.7492279264809838   T   T   T
  0.5001954443835785  0.4261400059291205  0.2492282046970544   T   T   T
  0.5001978910270140  0.4261433993515595  0.7492280929928228   T   T   T
  0.0002651196230090  0.4348719954344347  0.9990522463733598   T   T   T
  0.0002659662231395  0.4348714090580899  0.4990534318456525   T   T   T
  0.5002664034539777  0.4348704455694730  0.9990528490903330   T   T   T
  0.5002682668778959  0.4348636761928262  0.4990528309954030   T   T   T
  0.2498681602390818  0.4347301101556340  0.1240717603300254   T   T   T
  0.2498687998515194  0.4347296788112942  0.6240715817520623   T   T   T
  0.7498675378329622  0.4347305158756924  0.1240714827716047   T   T   T
  0.7498676835810798  0.4347275643587736  0.6240723213012842   T   T   T
  0.2506415324595466  0.4347396148675955  0.3742460772296283   T   T   T
  0.2506447801340883  0.4347413010105612  0.8742471506784355   T   T   T
  0.7506441843036527  0.4347411008825546  0.3742467117987900   T   T   T
  0.7506444069195979  0.4347413847386790  0.8742472237681227   T   T   T
  0.2501799576048711  0.4524759104272107  0.2495429974665200   T   T   T
  0.2501740779897546  0.4524654078002399  0.7495526499502247   T   T   T
  0.7501807636717359  0.4524773555002071  0.2495415463158466   T   T   T
  0.7501747556899048  0.4524642544227646  0.7495539107254885   T   T   T
  0.2500347220203949  0.4532106997789782  0.9993119265605728   T   T   T
  0.2500364692747681  0.4532116816493641  0.4993131291041948   T   T   T
  0.7500341680738458  0.4532107315793255  0.9993124601504277   T   T   T
  0.7500361483479168  0.4532129052603935  0.4993139879893107   T   T   T
  0.4883818245014666  0.1478878961655141  0.3859929284696832   T   T   T
  0.4042287632317354  0.1663338723652785  0.3953323520103282   T   T   T
  0.5392335180570029  0.1622136619689982  0.4472107760149981   F   F   F
  0.3687952941034354  0.1210271557547671  0.4488221912809749   T   T   T
  0.6193401429030487  0.1305481617944295  0.4380281995629360   T   T   T
  0.3068696575934169  0.5283231280477949  0.4895148773511195   T   T   T
  0.3068842745400815  0.5283142586097753  0.9895158400221433   T   T   T
  0.8068903749051941  0.5283106020467585  0.4895165923605305   T   T   T
  0.8068763807413788  0.5283188894868829  0.9895154303915419   T   T   T
  0.1994051125879253  0.5348820122063387  0.4033408028484189   T   T   T
  0.1994049274951522  0.5348816577618933  0.9033410098962733   T   T   T
  0.6994042948049923  0.5348833099033001  0.4033409705007642   T   T   T
  0.6994047235864329  0.5348819894317458  0.9033411237025177   T   T   T
  0.2114507690207859  0.5296524101549025  0.1534343233425659   T   T   T
  0.2114506609192830  0.5296519096056471  0.6534352183793501   T   T   T
  0.7114502924613575  0.5296528952024815  0.1534341281431821   T   T   T
  0.7114511531413399  0.5296508339587902  0.6534357335719747   T   T   T
  0.4375583403114405  0.5256267046939271  0.2887771135991528   T   T   T
  0.4375593298700835  0.5256276996541374  0.7887782121414517   T   T   T
  0.9375592405527300  0.5256297142377093  0.2887769682237931   T   T   T
  0.9375597152139292  0.5256273879765487  0.7887783684902274   T   T   T
  0.4402073078232718  0.5278406172051788  0.0501389138513346   T   T   T
  0.4401898416641217  0.5278399636567741  0.5501507350064259   T   T   T
  0.9401871457030566  0.5278403297764811  0.0501515223621780   T   T   T
  0.9402157156566417  0.5278374731147366  0.5501383378041211   T   T   T
  0.3190959710103343  0.5255307768726851  0.2450169869599179   T   T   T
  0.3190630337646851  0.5254148025039598  0.7450984989024718   T   T   T
  0.8191337685497118  0.5255858164724145  0.2448741702033601   T   T   T
  0.8190738233627854  0.5253938216698657  0.7450985343218051   T   T   T
  0.0565093568184167  0.5263480659316642  0.3560796016404026   T   T   T
  0.0565097319625778  0.5263473860144288  0.8560815540403723   T   T   T
  0.5565073565829408  0.5263503914998893  0.3560707885995456   T   T   T
  0.5565095858332896  0.5263479602154675  0.8560816846158019   T   T   T
  0.0565338505988677  0.5231744556056697  0.1072534298435244   T   T   T
  0.0565304173565906  0.5231754184293962  0.6072495522485326   T   T   T
  0.5565313107672480  0.5231758877661719  0.1072515150611935   T   T   T
  0.5565282333213943  0.5231830141814413  0.6072473194199048   T   T   T
  0.4906139249244674  0.0953943572405294  0.3768930867812585   T   T   T
  0.5119742473411932  0.1743462493560344  0.3437004075315571   T   T   T
  0.3724810094355320  0.1567664960789159  0.3466856613760925   T   T   T
  0.5451485516660952  0.2118624357061947  0.4541555640338473   T   T   T
  0.5149022763399387  0.1404811776408650  0.4919402020387125   T   T   T
  0.4020506677236000  0.2382197662122181  0.4660149473716118   T   T   T
  0.3364015757473524  0.2474835856624864  0.4082645119810380   T   T   T
  0.6695250328900784  0.2113773167380160  0.4809894473046867   T   T   T
  0.7352279034666154  0.1504703862574814  0.4635848538397127   T   T   T
  0.3218474229115529  0.0462727977071395  0.4669562559402323   T   T   T
  0.3927695932457738  0.2311363592695841  0.4160901025026646   T   T   T
  0.6787081038594138  0.1660865032934637  0.4682213453465849   T   T   T
  0.2500326738677998  0.5190599399668301  0.4892665462532548   T   T   T
  0.2500332682234259  0.5190601384709765  0.9892668627641470   T   T   T
  0.7500329375983696  0.5190591115351637  0.4892667046806451   T   T   T
  0.7500330534941142  0.5190600450090130  0.9892666773191223   T   T   T
  0.1666385627938425  0.5190847543524981  0.3649699335026071   T   T   T
  0.1666387202065067  0.5190849853197008  0.8649699044742860   T   T   T
  0.6666390366092827  0.5190842325449765  0.3649708443661766   T   T   T
  0.6666389305713736  0.5190848653145963  0.8649698842181408   T   T   T
  0.1666140780282461  0.5180477820774314  0.1247001543413617   T   T   T
  0.1666145388161269  0.5180477858277470  0.6246989596364827   T   T   T
  0.6666143953695425  0.5180476515694892  0.1246999513220288   T   T   T
  0.6666140642565708  0.5180471591740670  0.6246979454381218   T   T   T
  0.4049354245122316  0.5098516669650195  0.2502483823324795   T   T   T
  0.4049338289497584  0.5098512836340632  0.7502491263356532   T   T   T
  0.9049348608908829  0.5098506083685521  0.2502504777795593   T   T   T
  0.9049334319435900  0.5098511926220723  0.7502490812421385   T   T   T
  0.4048698618351736  0.5190522227860015  0.0101286725813026   T   T   T
  0.4048701352657105  0.5190519704769585  0.5101293885510785   T   T   T
  0.9048697920418931  0.5190524377570256  0.0101301671725764   T   T   T
  0.9048704552320785  0.5190520892983628  0.5101276750694907   T   T   T
  0.2617164020767433  0.5190451453053129  0.2495609107731127   T   T   T
  0.2617606792575273  0.5190034660261702  0.7495874564451199   T   T   T
  0.7617199688385838  0.5190486000940453  0.2495752277414738   T   T   T
  0.7617609207807519  0.5190088811097411  0.7496000536431424   T   T   T
  0.0000573345252519  0.5180213873464723  0.3642356626897651   T   T   T
  0.0000575976181807  0.5180213155333746  0.8642349626946597   T   T   T
  0.5000584431954849  0.5180211513728068  0.3642362837358135   T   T   T
  0.5000577227056198  0.5180213422784163  0.8642346875936227   T   T   T
  0.0001258847724017  0.5099055685773664  0.1142130140546271   T   T   T
  0.0001268632107099  0.5099082495914757  0.6142039851674070   T   T   T
  0.5001266978243137  0.5099080337320387  0.1142046840717512   T   T   T
  0.5001265474757659  0.5099009543328279  0.6141988507040423   T   T   T
  0.3449251486619715  0.3697929238584052  0.4382004833505064   T   T   T
  0.3449281105970030  0.3697922628541193  0.9381975305658585   T   T   T
  0.8449273296522222  0.3697909656978382  0.4381988129071885   T   T   T
  0.8449281338750865  0.3697923100362459  0.9381974588857105   T   T   T
  0.3325611603055805  0.3651196955414591  0.1883026512195443   T   T   T
  0.3325570014379409  0.3651212150809684  0.6883024357101988   T   T   T
  0.8325574032685807  0.3651209906175836  0.1883039021135673   T   T   T
  0.8325544269167793  0.3651597987877437  0.6882655304293124   T   T   T
  0.1666411940495465  0.3698377349976809  0.4681638379157889   T   T   T
  0.1666393490950000  0.3698387520519404  0.9681638856845041   T   T   T
  0.6666430519320485  0.3698354223768590  0.4681639592924540   T   T   T
  0.6666392434342328  0.3698386337886461  0.9681637265558436   T   T   T
  0.0952171597859888  0.3656228243345510  0.3237621982736982   T   T   T
  0.0952170003492583  0.3656239230378020  0.8237699650468073   T   T   T
  0.5952114529337962  0.3656233099543087  0.3237684629812492   T   T   T
  0.5952129362557841  0.3656234513383225  0.8237599864327620   T   T   T
  0.0833036398833471  0.3615065941901747  0.0629001260907671   T   T   T
  0.0833025573048403  0.3615170023369387  0.5628986959458331   T   T   T
  0.5833002617403338  0.3615505684014337  0.0628936812610945   T   T   T
  0.5833134816287142  0.3611329066124469  0.5628826828121163   T   T   T
  0.4047847565340561  0.3657487586980253  0.0928423529812719   T   T   T
  0.4047836734257757  0.3657464066149885  0.5928427593137613   T   T   T
  0.9047826216149559  0.3657474974628272  0.0928462724875061   T   T   T
  0.9047865448605066  0.3657432579552875  0.5928375688203360   T   T   T
  0.4056331003695348  0.3649977024818014  0.3429482949661207   T   T   T
  0.4056394681228284  0.3649926233211502  0.8429507356221038   T   T   T
  0.9056398982151990  0.3649921125814757  0.3429509881256436   T   T   T
  0.9056393472991360  0.3649924570444725  0.8429506437018119   T   T   T
  0.1431171252269721  0.3698225280621870  0.2182430552765382   T   T   T
  0.1431122898747645  0.3698266943828301  0.7182449295241184   T   T   T
  0.6431132100382371  0.3698256918347411  0.2182454536601242   T   T   T
  0.6431130064407142  0.3698259351179800  0.7182443828067733   T   T   T
  0.3452828133869161  0.0643197283214363  0.4269219892249225   T   T   T
  0.3572262517374512  0.1383651719394408  0.5098184078712933   T   T   T
  0.6309499602369115  0.0827764790017582  0.4064629316687771   T   T   T
 
  


