C H N O                                 
   1.00000000000000     
    17.0814999999999984    0.0000000000000000    0.0000000000000000
     0.0000000000000000   21.3509999999999991    0.0000000000000000
     0.0000000000000000    0.0000000000000000   19.7240000000000002
   C    H    N    O 
   133    42     2    67
Selective dynamics
Direct
  0.0363696403743973  0.4169066192542710  0.0619444195697710   T   T   T
  0.0363708431522093  0.4169049471931978  0.5619441849516782   T   T   T
  0.5363718368847870  0.4168955603100110  0.0619444543304875   T   T   T
  0.5363778076862049  0.4168646524184699  0.5619431119218145   T   T   T
  0.0459305717318326  0.4170905484064524  0.3125317432232205   T   T   T
  0.0459257348208520  0.4170838135214446  0.8125336256770670   T   T   T
  0.5459142479530604  0.4170731634787670  0.3125328383653778   T   T   T
  0.5459249364976604  0.4170832312004730  0.8125334926254326   T   T   T
  0.0360342737977960  0.4345925042775895  0.1883322416925806   T   T   T
  0.0360347791368299  0.4345927153915421  0.6883326544739763   T   T   T
  0.5360336410786606  0.4345933258986855  0.1883331029691699   T   T   T
  0.5360343431530812  0.4345926008713295  0.6883326603608491   T   T   T
  0.0404855099191811  0.4314459324860286  0.4378770535928693   T   T   T
  0.0404898749543340  0.4314364350450599  0.9378736008325425   T   T   T
  0.5404566305184483  0.4314150378235819  0.4378775894699427   T   T   T
  0.5404845626001572  0.4314432085736186  0.9378791556837652   T   T   T
  0.2862699500271375  0.4351139176661548  0.0631699823947174   T   T   T
  0.2862696418371703  0.4351126298066020  0.5631697664341691   T   T   T
  0.7862700209774592  0.4351138267542893  0.0631701204634424   T   T   T
  0.7862701107443065  0.4351119781563833  0.5631697841113814   T   T   T
  0.2858856555685058  0.4262592316464479  0.3130894162398874   T   T   T
  0.2858824666015345  0.4262550732327905  0.8130863757079596   T   T   T
  0.7858827112418663  0.4262573726374245  0.3130887273277033   T   T   T
  0.7858826833769614  0.4262544864822248  0.8130865020232714   T   T   T
  0.2867822913089417  0.4255670508573624  0.1871276564687746   T   T   T
  0.2867840379131800  0.4255630409906485  0.6871296323815477   T   T   T
  0.7867819956855536  0.4255661836661496  0.1871275861473236   T   T   T
  0.7867834521465820  0.4255665281933501  0.6871300996420258   T   T   T
  0.2959598416551167  0.4257956603280247  0.4372365531344405   T   T   T
  0.2959686138161129  0.4257816660621018  0.9372288801757604   T   T   T
  0.7959681472394622  0.4257894423544690  0.4372259402896654   T   T   T
  0.7959677916790521  0.4257817702129441  0.9372298532920104   T   T   T
  0.1231349163186597  0.4196588170191165  0.0625892274014998   T   T   T
  0.1231347588412061  0.4196556570467084  0.5625899026272461   T   T   T
  0.6231303881626823  0.4196463129915738  0.0625894655066010   T   T   T
  0.6231105705959422  0.4196174424739434  0.5625915897972359   T   T   T
  0.1304183488619798  0.4258165049111075  0.3132212035868217   T   T   T
  0.1304172640191892  0.4258131838100865  0.8132214877578253   T   T   T
  0.6304133794508960  0.4258151318098334  0.3132200604732719   T   T   T
  0.6304168761167989  0.4258134229742122  0.8132219118501668   T   T   T
  0.1196315025575730  0.4261268341424712  0.1868294783530181   T   T   T
  0.1196315846321784  0.4261254071099134  0.6868302008185619   T   T   T
  0.6196319345551058  0.4261262365362986  0.1868301053908051   T   T   T
  0.6196302547085700  0.4261268523179046  0.6868313531176021   T   T   T
  0.1296834602893662  0.4257197066538712  0.4368191801981142   T   T   T
  0.1296888549638875  0.4257158065219458  0.9368190225195069   T   T   T
  0.6296468576992261  0.4257252194234760  0.4368216503716081   T   T   T
  0.6296863127348656  0.4257161565549969  0.9368192094560273   T   T   T
  0.3701378868615045  0.4255449131248106  0.0618797000708883   T   T   T
  0.3701362505155947  0.4255475064168179  0.5618798728448863   T   T   T
  0.8701375937643867  0.4255450567106860  0.0618797020895194   T   T   T
  0.8701372396778935  0.4255469926139478  0.5618796042902922   T   T   T
  0.3699437660499275  0.4170011085873180  0.3117912566650597   T   T   T
  0.3699361219380566  0.4169976816819695  0.8117935090114088   T   T   T
  0.8699362804200882  0.4169996403628097  0.3117924915215891   T   T   T
  0.8699357965190790  0.4169981841659450  0.8117932824364210   T   T   T
  0.3729422384448510  0.4230960461445435  0.1874891607779329   T   T   T
  0.3729432066095469  0.4230938080270272  0.6874887606068515   T   T   T
  0.8729404515286060  0.4230960976610869  0.1874879070659626   T   T   T
  0.8729411673533874  0.4230972919785622  0.6874909718380127   T   T   T
  0.3807167540779655  0.4266232390898046  0.4379572347043512   T   T   T
  0.3807140613468943  0.4266270929216257  0.9379617335830690   T   T   T
  0.8807139565660951  0.4266293513729411  0.4379623346038934   T   T   T
  0.8807138651373136  0.4266271250112358  0.9379616843428972   T   T   T
  0.1660624060256233  0.4450251831705427  0.1245486905022239   T   T   T
  0.1660603494574747  0.4450240409283214  0.6245515733295636   T   T   T
  0.6660604498815788  0.4450236612865518  0.1245491327782171   T   T   T
  0.6660583177384553  0.4450184321305967  0.6245524347830401   T   T   T
  0.1672209497538209  0.4533204518670972  0.3744083996364648   T   T   T
  0.1672193855135525  0.4533195130727832  0.8744082478983383   T   T   T
  0.6672198023893428  0.4533210316845485  0.3744049874530152   T   T   T
  0.6672191461794839  0.4533198976302104  0.8744085858389893   T   T   T
  0.1668509926178290  0.4264950334669594  0.2492123408391596   T   T   T
  0.1668507793507617  0.4264918907427160  0.7492125485182486   T   T   T
  0.6668495650327043  0.4264937444402688  0.2492120902910070   T   T   T
  0.6668504657091927  0.4264933733924317  0.7492124339536471   T   T   T
  0.1674770382138774  0.4263940455170518  0.0004933495688597   T   T   T
  0.1674785262421866  0.4263943860205922  0.5004931005530291   T   T   T
  0.6674737219972385  0.4263921868307417  0.0004946933166276   T   T   T
  0.6674593873353561  0.4263932547016950  0.5004965403384672   T   T   T
  0.4164497490092486  0.4255047297612611  0.1243460563192961   T   T   T
  0.4164489796397342  0.4255042104671135  0.6243456238916036   T   T   T
  0.9164496570693779  0.4255048016210794  0.1243460288994835   T   T   T
  0.9164511159161752  0.4255071043966235  0.6243450377388154   T   T   T
  0.4173102655550757  0.4258071103322714  0.3740989291636338   T   T   T
  0.4173087301700981  0.4258131184468272  0.8741004348575062   T   T   T
  0.9173093784008154  0.4258135949672911  0.3741000390945802   T   T   T
  0.9173091005941978  0.4258133769787869  0.8741005329784346   T   T   T
  0.4159396831080933  0.4438924066044312  0.2504314883131284   T   T   T
  0.4159395999893908  0.4438908188610438  0.7504274953849898   T   T   T
  0.9159408789679578  0.4438904593849841  0.2504244670973222   T   T   T
  0.9159409937560713  0.4438927476349878  0.7504267307166325   T   T   T
  0.4165397870509638  0.4531761719494912  0.0006457126102922   T   T   T
  0.4165402144416976  0.4531749130542866  0.5006471442916194   T   T   T
  0.9165397025618391  0.4531766951176799  0.0006457371662635   T   T   T
  0.9165405047874341  0.4531770934723268  0.5006456522543757   T   T   T
  0.9995293269039001  0.4445360836557360  0.1242475462218677   T   T   T
  0.9995326655141957  0.4445353682644088  0.6242483896775390   T   T   T
  0.4995307370909854  0.4445347012537595  0.1242477188946185   T   T   T
  0.4995318727517062  0.4445234128638095  0.6242496196561689   T   T   T
  0.0003901530168010  0.4449862734342369  0.3740562460217675   T   T   T
  0.0003904005882362  0.4449847995794409  0.8740572001511484   T   T   T
  0.5003790556580495  0.4449832739234002  0.3740486416051391   T   T   T
  0.5003876605607165  0.4449852908694192  0.8740558759692024   T   T   T
  0.0001984170575352  0.4261432132540667  0.2492283460407837   T   T   T
  0.0001974221952841  0.4261422834428815  0.7492279264809804   T   T   T
  0.5001954443835792  0.4261400059291202  0.2492282046970551   T   T   T
  0.5001978910270169  0.4261433993515568  0.7492280929928242   T   T   T
  0.0002651196230123  0.4348719954344338  0.9990522463733602   T   T   T
  0.0002659662231420  0.4348714090580914  0.4990534318456515   T   T   T
  0.5002664034539768  0.4348704455694756  0.9990528490903308   T   T   T
  0.5002682668778935  0.4348636761928277  0.4990528309954052   T   T   T
  0.2498681602390822  0.4347301101556336  0.1240717603300225   T   T   T
  0.2498687998515191  0.4347296788112968  0.6240715817520610   T   T   T
  0.7498675378329593  0.4347305158756950  0.1240714827716074   T   T   T
  0.7498676835810809  0.4347275643587764  0.6240723213012814   T   T   T
  0.2506415324595475  0.4347396148675951  0.3742460772296273   T   T   T
  0.2506447801340894  0.4347413010105636  0.8742471506784354   T   T   T
  0.7506441843036508  0.4347411008825522  0.3742467117987927   T   T   T
  0.7506444069195980  0.4347413847386782  0.8742472237681257   T   T   T
  0.2501799576048699  0.4524759104272125  0.2495429974665190   T   T   T
  0.2501740779897554  0.4524654078002407  0.7495526499502247   T   T   T
  0.7501807636717341  0.4524773555002046  0.2495415463158474   T   T   T
  0.7501747556899023  0.4524642544227631  0.7495539107254919   T   T   T
  0.2500347220203941  0.4532106997789777 -0.0006880734394238   T   T   T
  0.2500364692747651  0.4532116816493608  0.4993131291041913   T   T   T
  0.7500341680738432  0.4532107315793227 -0.0006875398495724   T   T   T
  0.7500361483479185  0.4532129052603915  0.4993139879893080   T   T   T
  0.4883818245014684  0.1478878961655167  0.3859929284696862   T   T   T
  0.4042287632317352  0.1663338723652775  0.3953323520103283   T   T   T
  0.5392335180570029  0.1622136619689982  0.4472107760149981   F   F   F
  0.3687952941034325  0.1210271557547678  0.4488221912809755   T   T   T
  0.6193401429030454  0.1305481617944280  0.4380281995629378   T   T   T
  0.3068696575934167  0.5283231280477918  0.4895148773511220   T   T   T
  0.3068842745400834  0.5283142586097737  0.9895158400221415   T   T   T
  0.8068903749051959  0.5283106020467614  0.4895165923605300   T   T   T
  0.8068763807413819  0.5283188894868811  0.9895154303915440   T   T   T
  0.1994051125879223  0.5348820122063395  0.4033408028484193   T   T   T
  0.1994049274951518  0.5348816577618941  0.9033410098962728   T   T   T
  0.6994042948049934  0.5348833099032971  0.4033409705007622   T   T   T
  0.6994047235864356  0.5348819894317480  0.9033411237025196   T   T   T
  0.2114507690207874  0.5296524101549047  0.1534343233425677   T   T   T
  0.2114506609192828  0.5296519096056441  0.6534352183793480   T   T   T
  0.7114502924613562  0.5296528952024797  0.1534341281431829   T   T   T
  0.7114511531413394  0.5296508339587923  0.6534357335719763   T   T   T
  0.4375583403114429  0.5256267046939279  0.2887771135991511   T   T   T
  0.4375593298700809  0.5256276996541387  0.7887782121414498   T   T   T
  0.9375592405527268  0.5256297142377093  0.2887769682237957   T   T   T
  0.9375597152139269  0.5256273879765457  0.7887783684902282   T   T   T
  0.4402073078232692  0.5278406172051774  0.0501389138513373   T   T   T
  0.4401898416641203  0.5278399636567731  0.5501507350064283   T   T   T
  0.9401871457030586  0.5278403297764815  0.0501515223621807   T   T   T
  0.9402157156566432  0.5278374731147369  0.5501383378041214   T   T   T
  0.3190959710103367  0.5255307768726877  0.2450169869599185   T   T   T
  0.3190630337646881  0.5254148025039582  0.7450984989024736   T   T   T
  0.8191337685497139  0.5255858164724139  0.2448741702033580   T   T   T
  0.8190738233627837  0.5253938216698640  0.7450985343218024   T   T   T
  0.0565093568184147  0.5263480659316611  0.3560796016404056   T   T   T
  0.0565097319625798  0.5263473860144274  0.8560815540403721   T   T   T
  0.5565073565829413  0.5263503914998914  0.3560707885995442   T   T   T
  0.5565095858332908  0.5263479602154650  0.8560816846157990   T   T   T
  0.0565338505988645  0.5231744556056699  0.1072534298435227   T   T   T
  0.0565304173565925  0.5231754184293993  0.6072495522485297   T   T   T
  0.5565313107672476  0.5231758877661700  0.1072515150611905   T   T   T
  0.5565282333213918  0.5231830141814436  0.6072473194199037   T   T   T
  0.4906139249244708  0.0953943572405259  0.3768930867812602   T   T   T
  0.5119742473411945  0.1743462493560312  0.3437004075315582   T   T   T
  0.3724810094355316  0.1567664960789145  0.3466856613760920   T   T   T
  0.5451485516660929  0.2118624357061955  0.4541555640338446   T   T   T
  0.5149022763399408  0.1404811776408664  0.4919402020387103   T   T   T
  0.4020506677236007  0.2382197662122177  0.4660149473716100   T   T   T
  0.3364015757473558  0.2474835856624895  0.4082645119810377   T   T   T
  0.6695250328900797  0.2113773167380167  0.4809894473046843   T   T   T
  0.7352279034666163  0.1504703862574785  0.4635848538397108   T   T   T
  0.3218474229115528  0.0462727977071419  0.4669562559402320   T   T   T
  0.3927695932457750  0.2311363592695848  0.4160901025026653   T   T   T
  0.6787081038594107  0.1660865032934633  0.4682213453465838   T   T   T
  0.2500326738677964  0.5190599399668273  0.4892665462532542   T   T   T
  0.2500332682234290  0.5190601384709752  0.9892668627641455   T   T   T
  0.7500329375983671  0.5190591115351662  0.4892667046806454   T   T   T
  0.7500330534941152  0.5190600450090114  0.9892666773191197   T   T   T
  0.1666385627938460  0.5190847543524989  0.3649699335026074   T   T   T
  0.1666387202065086  0.5190849853196980  0.8649699044742870   T   T   T
  0.6666390366092808  0.5190842325449742  0.3649708443661763   T   T   T
  0.6666389305713761  0.5190848653145992  0.8649698842181421   T   T   T
  0.1666140780282460  0.5180477820774296  0.1247001543413620   T   T   T
  0.1666145388161235  0.5180477858277450  0.6246989596364837   T   T   T
  0.6666143953695428  0.5180476515694888  0.1246999513220259   T   T   T
  0.6666140642565731  0.5180471591740657  0.6246979454381233   T   T   T
  0.4049354245122286  0.5098516669650182  0.2502483823324801   T   T   T
  0.4049338289497611  0.5098512836340652  0.7502491263356512   T   T   T
  0.9049348608908813  0.5098506083685506  0.2502504777795586   T   T   T
  0.9049334319435904  0.5098511926220701  0.7502490812421392   T   T   T
  0.4048698618351771  0.5190522227860004  0.0101286725813061   T   T   T
  0.4048701352657110  0.5190519704769551  0.5101293885510771   T   T   T
  0.9048697920418963  0.5190524377570258  0.0101301671725755   T   T   T
  0.9048704552320753  0.5190520892983640  0.5101276750694904   T   T   T
  0.2617164020767409  0.5190451453053100  0.2495609107731160   T   T   T
  0.2617606792575251  0.5190034660261730  0.7495874564451177   T   T   T
  0.7617199688385834  0.5190486000940477  0.2495752277414748   T   T   T
  0.7617609207807536  0.5190088811097393  0.7496000536431419   T   T   T
  0.0000573345252526  0.5180213873464753  0.3642356626897618   T   T   T
  0.0000575976181814  0.5180213155333779  0.8642349626946629   T   T   T
  0.5000584431954875  0.5180211513728037  0.3642362837358114   T   T   T
  0.5000577227056181  0.5180213422784185  0.8642346875936212   T   T   T
  0.0001258847724031  0.5099055685773666  0.1142130140546303   T   T   T
  0.0001268632107090  0.5099082495914768  0.6142039851674073   T   T   T
  0.5001266978243117  0.5099080337320375  0.1142046840717541   T   T   T
  0.5001265474757670  0.5099009543328302  0.6141988507040400   T   T   T
  0.3449251486619683  0.3697929238584085  0.4382004833505077   T   T   T
  0.3449281105970002  0.3697922628541179  0.9381975305658568   T   T   T
  0.8449273296522203  0.3697909656978379  0.4381988129071864   T   T   T
  0.8449281338750874  0.3697923100362448  0.9381974588857104   T   T   T
  0.3325611603055815  0.3651196955414589  0.1883026512195465   T   T   T
  0.3325570014379426  0.3651212150809676  0.6883024357102016   T   T   T
  0.8325574032685809  0.3651209906175861  0.1883039021135660   T   T   T
  0.8325544269167791  0.3651597987877418  0.6882655304293150   T   T   T
  0.1666411940495450  0.3698377349976806  0.4681638379157923   T   T   T
  0.1666393490950022  0.3698387520519371  0.9681638856845010   T   T   T
  0.6666430519320491  0.3698354223768622  0.4681639592924553   T   T   T
  0.6666392434342351  0.3698386337886480  0.9681637265558417   T   T   T
  0.0952171597859918  0.3656228243345490  0.3237621982736971   T   T   T
  0.0952170003492614  0.3656239230378007  0.8237699650468078   T   T   T
  0.5952114529337935  0.3656233099543074  0.3237684629812457   T   T   T
  0.5952129362557820  0.3656234513383245  0.8237599864327607   T   T   T
  0.0833036398833490  0.3615065941901712  0.0629001260907681   T   T   T
  0.0833025573048429  0.3615170023369362  0.5628986959458343   T   T   T
  0.5833002617403322  0.3615505684014339  0.0628936812610934   T   T   T
  0.5833134816287118  0.3611329066124439  0.5628826828121167   T   T   T
  0.4047847565340564  0.3657487586980230  0.0928423529812721   T   T   T
  0.4047836734257779  0.3657464066149856  0.5928427593137640   T   T   T
  0.9047826216149588  0.3657474974628251  0.0928462724875044   T   T   T
  0.9047865448605054  0.3657432579552844  0.5928375688203337   T   T   T
  0.4056331003695368  0.3649977024818026  0.3429482949661242   T   T   T
  0.4056394681228252  0.3649926233211481  0.8429507356221038   T   T   T
  0.9056398982152025  0.3649921125814742  0.3429509881256467   T   T   T
  0.9056393472991339  0.3649924570444739  0.8429506437018098   T   T   T
  0.1431171252269749  0.3698225280621834  0.2182430552765411   T   T   T
  0.1431122898747639  0.3698266943828297  0.7182449295241188   T   T   T
  0.6431132100382405  0.3698256918347446  0.2182454536601210   T   T   T
  0.6431130064407136  0.3698259351179828  0.7182443828067721   T   T   T
  0.3452828133869171  0.0643197283214342  0.4269219892249236   T   T   T
  0.3572262517374500  0.1383651719394430  0.5098184078712923   T   T   T
  0.6309499602369104  0.0827764790017561  0.4064629316687747   T   T   T
 
  


