C H N O                                 
   1.00000000000000     
    17.0814999999999984    0.0000000000000000    0.0000000000000000
     0.0000000000000000   21.3509999999999991    0.0000000000000000
     0.0000000000000000    0.0000000000000000   19.7240000000000002
   C    H    N    O 
   133    42     2    67
Selective dynamics
Direct
  0.0364255161790188  0.4169839075217456  0.0620468518809144   T   T   T
  0.0364202314518580  0.4169818415573694  0.5620465697886077   T   T   T
  0.5364273972568642  0.4169849168290249  0.0620469248842295   T   T   T
  0.5364340136262696  0.4169882429672359  0.5620424017263832   T   T   T
  0.0461399274206611  0.4172432713313609  0.3127155434893414   T   T   T
  0.0461492983402146  0.4172460926851294  0.8127235362783476   T   T   T
  0.5461939832632372  0.4172534716239074  0.3127466483976589   T   T   T
  0.5461409215556694  0.4172437837378074  0.8127153382905892   T   T   T
  0.0360773824648360  0.4346864187637539  0.1884025055536798   T   T   T
  0.0360765132952694  0.4346861392983715  0.6884020606646224   T   T   T
  0.5360774641387998  0.4346855937560882  0.1884020967544127   T   T   T
  0.5360766237186737  0.4346862446778332  0.6884033109664247   T   T   T
  0.0408154429264885  0.4325975409509880  0.4379690714552448   T   T   T
  0.0407724425071670  0.4325511867403926  0.9379487046845055   T   T   T
  0.5407094164095932  0.4323660656426823  0.4378928151482642   T   T   T
  0.5407632348548047  0.4325738395678169  0.9379570129014683   T   T   T
  0.2863189089105783  0.4352628557639426  0.0632447806493110   T   T   T
  0.2863205196411411  0.4352615293923640  0.5632441399022572   T   T   T
  0.7863181393627977  0.4352629564483487  0.0632447882386151   T   T   T
  0.7863162697362094  0.4352610433984865  0.5632451374823068   T   T   T
  0.2859897648563697  0.4263512496671143  0.3131930542155105   T   T   T
  0.2859508762497217  0.4263620823147612  0.8131890570420354   T   T   T
  0.7859508067350486  0.4263601618581351  0.3131891837305821   T   T   T
  0.7859508743247062  0.4263632264360426  0.8131873859776180   T   T   T
  0.2873302550126172  0.4257483883524587  0.1875713896941244   T   T   T
  0.2873277305336474  0.4257495470128898  0.6875729598837613   T   T   T
  0.7873276370754416  0.4257505111808799  0.1875741965587566   T   T   T
  0.7873351365450667  0.4257577012094491  0.6875682495489281   T   T   T
  0.2959693121707250  0.4259324339335977  0.4374104436261853   T   T   T
  0.2959647150430664  0.4259315981710537  0.9374076668134608   T   T   T
  0.7959639529659672  0.4259359042385807  0.4374101703787857   T   T   T
  0.7959642623687397  0.4259318174508350  0.9374078543615885   T   T   T
  0.1232105640262928  0.4197701203132764  0.0626634211109411   T   T   T
  0.1232012174793213  0.4197636954740760  0.5626637678250286   T   T   T
  0.6232115386381779  0.4197683751552195  0.0626642793341461   T   T   T
  0.6232113182908592  0.4197676564612301  0.5626608620804354   T   T   T
  0.1305230265865275  0.4259407255406603  0.3133062018614812   T   T   T
  0.1305248295578542  0.4259418787117851  0.8133060150985871   T   T   T
  0.6305206280141273  0.4259429593775536  0.3133068893734686   T   T   T
  0.6305241786190751  0.4259413202075460  0.8133060078465496   T   T   T
  0.1196983904921494  0.4262104788658705  0.1869235723943771   T   T   T
  0.1196973229844488  0.4262105246223218  0.6869232742931050   T   T   T
  0.6196984740952187  0.4262109471990603  0.1869259868993540   T   T   T
  0.6197000068384086  0.4262124343514332  0.6869217811994358   T   T   T
  0.1298777163080107  0.4258992430518078  0.4368689959710813   T   T   T
  0.1298735696303700  0.4258943385097862  0.9368695459050883   T   T   T
  0.6298716290777825  0.4258899174574580  0.4368689296236710   T   T   T
  0.6298733023524417  0.4258963907476719  0.9368700648648541   T   T   T
  0.3703052605179061  0.4256061137020500  0.0620121911442768   T   T   T
  0.3703113754116025  0.4255988676547700  0.5620099638863219   T   T   T
  0.8703014517547912  0.4256065481163266  0.0620107380388697   T   T   T
  0.8702974693252246  0.4256080200514289  0.5620103377282387   T   T   T
  0.3702326633260185  0.4168172772741038  0.3120219777112945   T   T   T
  0.3700475665982989  0.4170789924613729  0.8118816819034785   T   T   T
  0.8700442032605910  0.4170800660900305  0.3118827222941552   T   T   T
  0.8700460279982684  0.4170804343309108  0.8118823218239923   T   T   T
  0.3730556599560123  0.4232177046656904  0.1875834383151376   T   T   T
  0.3730597697779251  0.4232167684478464  0.6875791075732389   T   T   T
  0.8730473538281956  0.4232281203837664  0.1875810736515567   T   T   T
  0.8730481023964981  0.4232281023793648  0.6875803089991551   T   T   T
  0.3807711218435713  0.4267287097408475  0.4380847467260383   T   T   T
  0.3807642873560117  0.4267426001599524  0.9380956947275918   T   T   T
  0.8807594220864374  0.4267434814696106  0.4380947792748829   T   T   T
  0.8807641381004926  0.4267424294196999  0.9380958362769137   T   T   T
  0.1660958103184429  0.4451020114152924  0.1248201554019328   T   T   T
  0.1660950089975815  0.4450999421490035  0.6247988424897315   T   T   T
  0.6660903642166952  0.4451094952782030  0.1248420677491377   T   T   T
  0.6660929355264041  0.4451179369896849  0.6248223829777885   T   T   T
  0.1673158976016991  0.4533988215832524  0.3745197809272208   T   T   T
  0.1673152985557967  0.4533989130498894  0.8745219447043608   T   T   T
  0.6673128891041482  0.4534185785086015  0.3745182602137929   T   T   T
  0.6673143419184371  0.4533975657124211  0.8745212948042427   T   T   T
  0.1669392028203125  0.4265484785678410  0.2493000554293663   T   T   T
  0.1669382506550883  0.4265505535220470  0.7492993079472287   T   T   T
  0.6669353292995094  0.4265525204180662  0.2493012035715774   T   T   T
  0.6669376689185583  0.4265512473856587  0.7492979373502623   T   T   T
  0.1675318612843097  0.4264492017329503  0.0005791645497445   T   T   T
  0.1675248669787873  0.4264463169156463  0.5005811625220467   T   T   T
  0.6675338204399974  0.4264495754549557  0.0005789900898279   T   T   T
  0.6675342142610445  0.4264559225021937  0.5005746461557645   T   T   T
  0.4165385259890058  0.4256167618695055  0.1244388181679115   T   T   T
  0.4165410897649462  0.4256159177066675  0.6244386064301790   T   T   T
  0.9165373645275312  0.4256152025093941  0.1244376663290196   T   T   T
  0.9165360015721649  0.4256148475205551  0.6244356353605707   T   T   T
  0.4173172301605062  0.4256088892049355  0.3741367032070697   T   T   T
  0.4173636322155779  0.4259376561196414  0.8741857566801471   T   T   T
  0.9173634969768131  0.4259352517416468  0.3741861768342431   T   T   T
  0.9173635141015157  0.4259375692208809  0.8741856812694077   T   T   T
  0.4160746870981261  0.4439534821783351  0.2505953482443782   T   T   T
  0.4160472173671581  0.4439752194101431  0.7505867133378776   T   T   T
  0.9160476894947950  0.4439840002916778  0.2505874774430697   T   T   T
  0.9160509760220126  0.4439805401044399  0.7505857770792108   T   T   T
  0.4166161926878792  0.4532324554546439  0.0007665004618926   T   T   T
  0.4166214483106980  0.4532189840356723  0.5007621821328951   T   T   T
  0.9166154562782961  0.4532307656116187  0.0007662581198414   T   T   T
  0.9166118036605848  0.4532359697970109  0.5007647990763467   T   T   T
  0.9996264617332786  0.4446315101015916  0.1243143372797166   T   T   T
  0.9996238869553370  0.4446273179662125  0.6243143988315989   T   T   T
  0.4996283679624335  0.4446299751273745  0.1243161527124396   T   T   T
  0.4996359292170319  0.4446352265781681  0.6243122419996829   T   T   T
  0.0004515611816069  0.4450804685310847  0.3741465782510248   T   T   T
  0.0004486662388375  0.4450850113621895  0.8741450674370106   T   T   T
  0.5004322969571584  0.4450510656971019  0.3741301607620754   T   T   T
  0.5004512385746793  0.4450817364270482  0.8741446890898011   T   T   T
  0.0002900747065566  0.4262271007089412  0.2493145790848542   T   T   T
  0.0002920849840328  0.4262287688265423  0.7493155904373890   T   T   T
  0.5002991799475042  0.4262330751378965  0.2493161511749231   T   T   T
  0.5002897888705515  0.4262260558259530  0.7493143210583116   T   T   T
  0.0003765976291513  0.4350143928934670  0.9991280235211889   T   T   T
  0.0003763696832736  0.4350171746958207  0.4991284351177024   T   T   T
  0.5003777348543175  0.4350149111674868  0.9991291234880662   T   T   T
  0.5003785524901595  0.4350085168454147  0.4991230641628376   T   T   T
  0.2499541813087661  0.4348461100698780  0.1241989526681170   T   T   T
  0.2499540204030583  0.4348453727568715  0.6241987322771471   T   T   T
  0.7499537444912956  0.4348457855388594  0.1241986353501996   T   T   T
  0.7499539279786203  0.4348478320861047  0.6241983372003183   T   T   T
  0.2507274468056954  0.4348254726752878  0.3743189980610358   T   T   T
  0.2507230155927613  0.4348227814125907  0.8743215989188338   T   T   T
  0.7507220816308103  0.4348232093684373  0.3743211887167364   T   T   T
  0.7507229294376683  0.4348228973599031  0.8743218294926608   T   T   T
  0.2503429426962939  0.4526303566593388  0.2498448889684088   T   T   T
  0.2503268661538217  0.4527072046993689  0.7498217055999692   T   T   T
  0.7503321666704765  0.4527151426264034  0.2498328782891228   T   T   T
  0.7503269194087933  0.4527065108933744  0.7498082140263562   T   T   T
  0.2500843067771902  0.4532987409291857 -0.0005585036715198   T   T   T
  0.2500756751027276  0.4532849522651882  0.4994454469755752   T   T   T
  0.7500850766827353  0.4532984558132612 -0.0005580778693480   T   T   T
  0.7500906692891972  0.4533166924306830  0.4994397438481956   T   T   T
  0.4884062658619031  0.7228320093273213  0.4487834337804704   T   T   T
  0.4043761759709627  0.7422631281002574  0.4582855158543316   T   T   T
  0.5409463155369991  0.7394537206220022  0.5109734465199978   F   F   F
  0.3685403433742401  0.7030301604061716  0.5112599632632155   T   T   T
  0.6194222674368954  0.7051113602504234  0.5004457223726386   T   T   T
  0.3071533788480294  0.5281268691276122  0.4896248126267119   T   T   T
  0.3069237838385815  0.5283283596735471  0.9896715351098763   T   T   T
  0.8066878583950037  0.5284719727117192  0.4896550079644331   T   T   T
  0.8069188746961211  0.5283310659290802  0.9896720179875984   T   T   T
  0.1995149500774375  0.5354462927119613  0.4033799314979740   T   T   T
  0.1995144617785753  0.5354542118352773  0.9033863209327073   T   T   T
  0.6994711883179250  0.5353971785191474  0.4034034982937262   T   T   T
  0.6995145745683937  0.5354516542912608  0.9033876325843491   T   T   T
  0.2114263201228471  0.5297500850628067  0.1534803044687533   T   T   T
  0.2114228484576163  0.5297467202590408  0.6534875998993154   T   T   T
  0.7114247119042468  0.5297531217233603  0.1534814709187532   T   T   T
  0.7114254523639366  0.5297506068646667  0.6534766059994269   T   T   T
  0.4376955969276946  0.5261166705383878  0.2888161667270308   T   T   T
  0.4376939749254064  0.5261303529224812  0.7888128950587907   T   T   T
  0.9376934738194438  0.5261395743550615  0.2888137089319195   T   T   T
  0.9376966912612168  0.5261395988763076  0.7888131303477915   T   T   T
  0.4398084897557090  0.5279173872554519  0.0503572070055642   T   T   T
  0.4394918463106293  0.5276368885755132  0.5506294991509293   T   T   T
  0.9398204709709519  0.5279196250225932  0.0503470296501285   T   T   T
  0.9398447671569278  0.5279153329120672  0.5503396806476535   T   T   T
  0.3188979514728789  0.5252068923973047  0.2478199933407820   T   T   T
  0.3188615322560034  0.5252419084964730  0.7477424161973487   T   T   T
  0.8188256342047178  0.5252707925479650  0.2476570992045155   T   T   T
  0.8188558616329096  0.5252355938393131  0.7477317295215357   T   T   T
  0.0566465851952987  0.5262304226470849  0.3566983508961735   T   T   T
  0.0566472051346269  0.5262312873699478  0.8566992058506504   T   T   T
  0.5566532213264523  0.5262367292055600  0.3567322584968141   T   T   T
  0.5566464180496407  0.5262310981087217  0.8566979537634589   T   T   T
  0.0566866595623903  0.5252712674106843  0.1079998318898225   T   T   T
  0.0566860796291407  0.5252461084604547  0.6080519280194517   T   T   T
  0.5566866809819052  0.5252770164897609  0.1079919700733344   T   T   T
  0.5566014296130357  0.5255905947481265  0.6079193885846200   T   T   T
  0.4960911884986985  0.6735579207653583  0.4396607744933391   T   T   T
  0.5118539515650176  0.7500750195855171  0.4080498396668633   T   T   T
  0.3721579313870331  0.7386254556188261  0.4091216366600604   T   T   T
  0.5477098707859218  0.7883528502963536  0.5175163254209391   T   T   T
  0.5148594167426809  0.7205668269517971  0.5596640657355152   T   T   T
  0.4046085167244041  0.8148266496168446  0.5294346489019662   T   T   T
  0.3362810535524092  0.8224581491005055  0.4712733220498730   T   T   T
  0.6697933484453253  0.7849930789115293  0.5492085889181908   T   T   T
  0.7350233666416067  0.7238464464827147  0.5323988040328721   T   T   T
  0.3244508049337050  0.6226771881137058  0.5284968092722533   T   T   T
  0.3929504097953777  0.8100995976883011  0.4800047729193569   T   T   T
  0.6787658526865089  0.7402768663630759  0.5316353250389801   T   T   T
  0.2500595753286551  0.5190981771608987  0.4893624153921727   T   T   T
  0.2500485506295752  0.5190927723931652  0.9893466157232360   T   T   T
  0.7500363867051689  0.5190819232800616  0.4893512803869798   T   T   T
  0.7500486356029339  0.5190928478621649  0.9893459384863880   T   T   T
  0.1666648579320635  0.5191103352969136  0.3650365615492875   T   T   T
  0.1666643741098418  0.5191103833371322  0.8650353733082969   T   T   T
  0.6666655095012287  0.5191024317032179  0.3650111198525614   T   T   T
  0.6666645376982571  0.5191104211626496  0.8650356746969510   T   T   T
  0.1666251984918679  0.5180630854047005  0.1247670061467498   T   T   T
  0.1666268746698571  0.5180657791267624  0.6247637509374178   T   T   T
  0.6666255848278225  0.5180627473543098  0.1247653487233684   T   T   T
  0.6666261735375272  0.5180616167810742  0.6247722463728086   T   T   T
  0.4049559481227408  0.5098616172256936  0.2503393213662776   T   T   T
  0.4049589393819900  0.5098648987696983  0.7503318655680430   T   T   T
  0.9049620924574204  0.5098652385671480  0.2503316135900795   T   T   T
  0.9049627656167977  0.5098622657507599  0.7503316381894187   T   T   T
  0.4048881004855834  0.5191194908115576  0.0102496665583746   T   T   T
  0.4048682600664079  0.5190737792081600  0.5102491477507731   T   T   T
  0.9048885838619017  0.5191197408665018  0.0102496998927936   T   T   T
  0.9048968795833149  0.5191179211756799  0.5102594756957826   T   T   T
  0.2617046028727545  0.5190497524829004  0.2496429674617242   T   T   T
  0.2617038740776211  0.5190515506718060  0.7496411052800664   T   T   T
  0.7617068416091328  0.5190524226631116  0.2496388630248857   T   T   T
  0.7617926926900658  0.5190451046732206  0.7496597676458537   T   T   T
  0.0000698262784528  0.5180381554395745  0.3642800902774396   T   T   T
  0.0000695120775066  0.5180381819071530  0.8642794673093764   T   T   T
  0.5000638247151488  0.5180286674572704  0.3642783217290020   T   T   T
  0.5000706037699428  0.5180357632033646  0.8642799054947695   T   T   T
  0.0001738763590759  0.5099351542472995  0.1142761804284904   T   T   T
  0.0001715300399916  0.5099463934727322  0.6142789335237070   T   T   T
  0.5001735497145836  0.5099339683187054  0.1142732886170233   T   T   T
  0.5001463670351530  0.5099977106751690  0.6142738161251563   T   T   T
  0.3449066482433345  0.3698337949170217  0.4383581427904477   T   T   T
  0.3449259577880822  0.3698265486319776  0.9382970780053077   T   T   T
  0.8449282878599391  0.3698255884893316  0.4382943637295715   T   T   T
  0.8449261895024970  0.3698266316548056  0.9382973034558202   T   T   T
  0.3332615106525190  0.3656839274928701  0.1884003169022021   T   T   T
  0.3332588111943461  0.3656944571296489  0.6884029789123173   T   T   T
  0.8332609065969625  0.3656835114402845  0.1883966723678670   T   T   T
  0.8332606688429510  0.3656832788403039  0.6883953050687753   T   T   T
  0.1666605467681381  0.3698564298611413  0.4682057557379654   T   T   T
  0.1666600894736721  0.3698565099816754  0.9682055605001711   T   T   T
  0.6666608590327656  0.3698560984081949  0.4682061365802361   T   T   T
  0.6666600586790389  0.3698565684267388  0.9682054204627479   T   T   T
  0.0952358231303184  0.3656451939068964  0.3238060759781956   T   T   T
  0.0952352725937733  0.3656482022040057  0.8237961990718370   T   T   T
  0.5952621934748279  0.3656713389328545  0.3238301398704338   T   T   T
  0.5952355853530513  0.3656447895013327  0.8238079892827264   T   T   T
  0.0833115235680888  0.3615348614951227  0.0629433891445037   T   T   T
  0.0833111815819081  0.3615377661191691  0.5629403194242877   T   T   T
  0.5833115193037464  0.3615339110589902  0.0629433932536027   T   T   T
  0.5833115951442048  0.3615354116558182  0.5629437561618080   T   T   T
  0.4047965352347721  0.3657603880161211  0.0928615504613031   T   T   T
  0.4047951371630756  0.3657727021426615  0.5928896448757385   T   T   T
  0.9047954424964419  0.3657721650083205  0.0928888447099055   T   T   T
  0.9048001264185090  0.3657939561163358  0.5928509629497800   T   T   T
  0.4049226220071006  0.3615609684135020  0.3433277703435429   T   T   T
  0.4056427544676824  0.3650374255135013  0.8430257938482723   T   T   T
  0.9056600007519922  0.3650461832188759  0.3430130132517020   T   T   T
  0.9056419871184254  0.3650333694678684  0.8430097202650599   T   T   T
  0.1431248617358095  0.3698372984477527  0.2182826740812384   T   T   T
  0.1431263085823870  0.3698380663033508  0.7182820586714986   T   T   T
  0.6431268897156621  0.3698380032278479  0.2182815267966296   T   T   T
  0.6431248536855284  0.3698374304603402  0.7182836812821177   T   T   T
  0.3452767271250641  0.6435977051597815  0.4886964083262174   T   T   T
  0.3572448924248642  0.7134331152121062  0.5724479188670824   T   T   T
  0.6309459233746526  0.6568932901893174  0.4690738470137103   T   T   T
 
 


