C H N O                                 
   1.00000000000000     
    20.0000000000000000    0.0000000000000000    0.0000000000000000
     0.0000000000000000   21.3509999999999991    0.0000000000000000
     0.0000000000000000    0.0000000000000000   20.0000000000000000
   C    H    N    O 
   165    10     2     3
Selective dynamics
Direct
  0.0406623732407479  0.0176929435430197  0.0296278716838982   T   T   T
  0.0404975927011704  0.0178283122256519  0.1528046742272744   T   T   T
  0.0404901283698451  0.0177857633435055  0.2753321374144592   T   T   T
  0.0404872757173279  0.0177911406177536  0.3978013944366838   T   T   T
  0.0404836227928277  0.0178162548089317  0.5203560828572853   T   T   T
  0.0406331383628213  0.0175802332125808  0.6436460627818157   T   T   T
  0.0405088492027263  0.0178157650063573  0.7751223262009886   T   T   T
  0.0404931027550659  0.0178235172524882  0.8981334271370176   T   T   T
  0.0405725513707998  0.0837774477212325  0.0297311945419407   T   T   T
  0.0405084152787161  0.0838051617254946  0.1528119428451673   T   T   T
  0.0404932869126596  0.0837868714217656  0.2753480716897077   T   T   T
  0.0404927183399940  0.0837830778711144  0.3978153655223591   T   T   T
  0.0404851779905319  0.0837852243811393  0.5203487416363198   T   T   T
  0.0405053161211426  0.0836387294565635  0.6434459781488556   T   T   T
  0.0405012827012907  0.0836930633317822  0.7749447451673867   T   T   T
  0.0405179854142006  0.0837677070881493  0.8983676633853085   T   T   T
  0.0406424825996752  0.1190128883786327  0.0913603578678546   T   T   T
  0.0405165851934619  0.1188528575137892  0.2141466329120530   T   T   T
  0.0405168773864604  0.1188339470738493  0.3366120952085432   T   T   T
  0.0405135988331991  0.1188363633820742  0.4590715845002938   T   T   T
  0.0405044580383924  0.1188701269590939  0.5817637843536193   T   T   T
  0.0406198710059342  0.1161639837912934  0.7100584193134261   T   T   T
  0.0405042445667038  0.1188723229815401  0.8366028563865863   T   T   T
  0.0407421882172146  0.1174760635339320  0.9625735711283128   T   T   T
  0.0405721715774101  0.1847442292430881  0.0909027647385003   T   T   T
  0.0404880463765981  0.1843849814255204  0.2140647826244463   T   T   T
  0.0405011651705578  0.1843419577781444  0.3365392726779070   T   T   T
  0.0404822053380684  0.1843328799174063  0.4590259853735519   T   T   T
  0.0404960902493214  0.1844950656206693  0.5818848249064604   T   T   T
  0.0407311016342435  0.1822030976034771  0.7105606653569999   T   T   T
  0.0404879434540064  0.1843872163734333  0.8364796006127655   T   T   T
  0.0406860030767424  0.1845145192667605  0.9602732453392785   T   T   T
  0.0407100741522666  0.2170153967922064  0.0263367173669222   T   T   T
  0.0405040121709618  0.2136405898010240  0.1526948207538682   T   T   T
  0.0404882676592472  0.2136458771593298  0.2753143467323881   T   T   T
  0.0404899340126847  0.2136425440368147  0.3977831350714758   T   T   T
  0.0404803698741977  0.2136436382300340  0.5203326347899719   T   T   T
  0.0406833942201500  0.2136088585288490  0.6439615002789603   T   T   T
  0.0404883318179744  0.2133087067332155  0.7747370677994461   T   T   T
  0.0404935623796043  0.2135423779405738  0.8981411956818941   T   T   T
  0.0407375550991090  0.2839190372455064  0.0268875420798541   T   T   T
  0.0405608051662690  0.2791729299479629  0.1527425077439460   T   T   T
  0.0404800248862126  0.2792160924746354  0.2753749424170922   T   T   T
  0.0404620336853507  0.2792142867233836  0.3978441088735645   T   T   T
  0.0404392218283704  0.2791781139561588  0.5204348486420409   T   T   T
  0.0407385722372727  0.2805753248574604  0.6462062443760436   T   T   T
  0.0404981560073277  0.2786414858365474  0.7750427925790709   T   T   T
  0.0404454099428910  0.2791624548097282  0.8980769875038493   T   T   T
  0.0405203989762361  0.3144606682707898  0.0913421946105251   T   T   T
  0.0405016625294433  0.3142942332882678  0.2140752233494718   T   T   T
  0.0404932705338142  0.3142901952565635  0.3365747355001268   T   T   T
  0.0404870327117988  0.3142922881272350  0.4590768081711572   T   T   T
  0.0405171462414511  0.3143210242991173  0.5820698528356778   T   T   T
  0.0406116249147048  0.3141854680549766  0.7134419902779605   T   T   T
  0.0404872956168369  0.3142582835215637  0.8365848469370403   T   T   T
  0.0405074884125173  0.3145235565867922  0.9597731136339369   T   T   T
  0.0405078042470812  0.3803014604645362  0.0914741866269909   T   T   T
  0.0404928736381760  0.3802471001513987  0.2141115443229060   T   T   T
  0.0404928435090152  0.3802581750276282  0.3365832344155820   T   T   T
  0.0404891012018112  0.3802493155980483  0.4590689467595269   T   T   T
  0.0405155014010146  0.3802843987096392  0.5820852559097922   T   T   T
  0.0405778229342378  0.3801776607144612  0.7134664195363983   T   T   T
  0.0404901247158047  0.3802166054869173  0.8365942988390093   T   T   T
  0.0405842741833142  0.3804153799401190  0.9599339502739668   T   T   T
  0.0406653017157180  0.4159576169910688  0.0295561926580470   T   T   T
  0.0404978878853253  0.4160262618683910  0.1528198428751321   T   T   T
  0.0404949507259932  0.4159898736731180  0.2753505408855485   T   T   T
  0.0404789890938892  0.4160107403448523  0.3978216870699254   T   T   T
  0.0404942716274371  0.4160309644116167  0.5204599004858136   T   T   T
  0.0406782530582673  0.4142390363127793  0.6468262960589002   T   T   T
  0.0405104072917368  0.4160355827456927  0.7751575565123781   T   T   T
  0.0404963384837070  0.4160105596368086  0.8981630522272687   T   T   T
  0.0406550939959185  0.4821029530315303  0.0295619818566135   T   T   T
  0.0405020955056258  0.4820482292197641  0.1528075135531828   T   T   T
  0.0404951662945048  0.4820633909188529  0.2753552681555135   T   T   T
  0.0404668369117103  0.4820534992105616  0.3978534836407435   T   T   T
  0.0405135119790005  0.4820293874461645  0.5208730451564700   T   T   T
  0.0406871694324308  0.4818784748214219  0.6516298958811877   T   T   T
  0.0405001884143499  0.4820344342001686  0.7752885525083366   T   T   T
  0.0405009723898892  0.4820647083091325  0.8981586990399284   T   T   T
  0.0405124198454738  0.5177802391720856  0.0913871019401767   T   T   T
  0.0404925798588979  0.5178109799095277  0.2141161184679013   T   T   T
  0.0404813550596038  0.5177980176041224  0.3366030143152894   T   T   T
  0.0404779082473367  0.5178110148222307  0.4592236953127699   T   T   T
  0.0406208758350033  0.5166666666659978  0.5855325419810029   F   F   F
  0.0405108607194850  0.5177560025886766  0.7138358037400231   T   T   T
  0.0404854671732677  0.5178274791551056  0.8366531383127050   T   T   T
  0.0406248834671565  0.5177587304380104  0.9600268151363861   T   T   T
  0.0405221953265469  0.5838067132439591  0.0914010452750158   T   T   T
  0.0404977818623060  0.5837885390260963  0.2141058290824593   T   T   T
  0.0404944780487887  0.5837833801653901  0.3365787340766903   T   T   T
  0.0404924312437241  0.5837703892793646  0.4590862272376765   T   T   T
  0.0405218030715474  0.5835273615051660  0.5823205066237911   T   T   T
  0.0405502632341235  0.5838042428793698  0.7135125390640356   T   T   T
  0.0404925881017505  0.5838009430211203  0.8366164458649669   T   T   T
  0.0405623352323108  0.5838203017704496  0.9600264516224432   T   T   T
  0.0407224051800380  0.6190281212076565  0.0297559498591701   T   T   T
  0.0405548250850453  0.6188773131783551  0.1528219075721097   T   T   T
  0.0405219408046365  0.6188328825262440  0.2753935964471655   T   T   T
  0.0405118350347157  0.6188464586399289  0.3978569207921108   T   T   T
  0.0405403258711145  0.6187626301565864  0.5204737086244146   T   T   T
  0.0407401918466035  0.6168285577915058  0.6476101185138878   T   T   T
  0.0406120336744774  0.6190543807400131  0.7750622829621797   T   T   T
  0.0405227981592224  0.6189367263095139  0.8981830883299353   T   T   T
  0.0405975258623237  0.6847509380508030  0.0296597761007807   T   T   T
  0.0405096309218681  0.6845403594657113  0.1526654496374819   T   T   T
  0.0404836597759211  0.6843795102343618  0.2753131196353547   T   T   T
  0.0404925358645285  0.6844049140371006  0.3977861941903608   T   T   T
  0.0403819291360621  0.6839098074195485  0.5203172470623525   T   T   T
  0.0406859646489183  0.6841606545266051  0.6437853679269033   T   T   T
  0.0405852308759655  0.6847019376280515  0.7745500836914652   T   T   T
  0.0405059572621889  0.6846777436921611  0.8985277547930962   T   T   T
  0.0406724349701814  0.7147240391763217  0.0915251826617913   T   T   T
  0.0404867323453830  0.7136588999470015  0.2141193718163411   T   T   T
  0.0404900782858518  0.7136534910725393  0.3365405478164477   T   T   T
  0.0404763386320211  0.7136225672941062  0.4590468102872663   T   T   T
  0.0404894028674877  0.7134719234514553  0.5818399408966630   T   T   T
  0.0407281251742460  0.7163705988595261  0.7089610024094445   T   T   T
  0.0404902346060595  0.7136004864374477  0.8365264804365401   T   T   T
  0.0407326722511687  0.7156621259406046  0.9626120702116190   T   T   T
  0.0406795146786477  0.7851866209542330  0.0915682415079822   T   T   T
  0.0404347438077313  0.7791375561828406  0.2141815335411900   T   T   T
  0.0404688471713195  0.7792104256332117  0.3366034168154444   T   T   T
  0.0404542683176828  0.7792016020314981  0.4590846337393026   T   T   T
  0.0404297818688713  0.7791370439296532  0.5817481950216749   T   T   T
  0.0407377000799100  0.7814855628330575  0.7090716051257839   T   T   T
  0.0404768060819022  0.7792009014996426  0.8365777883847505   T   T   T
  0.0407468604720288  0.7808061682089030  0.9626557919445506   T   T   T
  0.0405859783536247  0.8147433399693484  0.0295643931715099   T   T   T
  0.0404817124960499  0.8146345885426804  0.1531760824007504   T   T   T
  0.0404915137958701  0.8142783225025328  0.2753325353050203   T   T   T
  0.0404909236339464  0.8142813383847874  0.3978223450363859   T   T   T
  0.0404787466726942  0.8142815377741117  0.5203476963533441   T   T   T
  0.0405147349772125  0.8144201423255919  0.6433774415852637   T   T   T
  0.0405238052643521  0.8143368628315971  0.7748670954249622   T   T   T
  0.0405167619384939  0.8143285067539366  0.8983205091546148   T   T   T
  0.0406827723874735  0.8804909482394573  0.0295505691194318   T   T   T
  0.0404819440251850  0.8803586057081891  0.1529687160261606   T   T   T
  0.0404913548380733  0.8802563180763956  0.2753436637013140   T   T   T
  0.0404895458850277  0.8802486501303012  0.3978153774685297   T   T   T
  0.0404840110096677  0.8802357912281042  0.5203622624959403   T   T   T
  0.0406001215365162  0.8804044448216229  0.6436399218737821   T   T   T
  0.0405140757608374  0.8802135324753382  0.7751157476416398   T   T   T
  0.0404959800295969  0.8802378039250992  0.8981255096921807   T   T   T
  0.0405152793366755  0.9159857943382337  0.0914015810484534   T   T   T
  0.0404893725718269  0.9160324368091566  0.2141203937664884   T   T   T
  0.0404821813644215  0.9159871195253694  0.3365671901157282   T   T   T
  0.0404877029757683  0.9160032741888753  0.4590502492322964   T   T   T
  0.0405006302423328  0.9159902371952175  0.5818660691713216   T   T   T
  0.0406701232617503  0.9159594082586243  0.7132091421357629   T   T   T
  0.0404855283458019  0.9160317677056091  0.8366008620866073   T   T   T
  0.0406136732443517  0.9159757967979181  0.9600347121526485   T   T   T
  0.0405156140484298  0.9820712122862018  0.0913924643909348   T   T   T
  0.0404928762399083  0.9820601983171826  0.2141138665374839   T   T   T
  0.0404926985224449  0.9820482000408648  0.3365685879638171   T   T   T
  0.0404900417354711  0.9820553409169429  0.4590481732373242   T   T   T
  0.0405048921511897  0.9820543384104360  0.5818592768235858   T   T   T
  0.0406637060520956  0.9820871621991053  0.7131893114995711   T   T   T
  0.0404888213573241  0.9820238222588690  0.8365943643985567   T   T   T
  0.0405818383006552  0.9820849553323902  0.9599991883889235   T   T   T
  0.2339310445859873  0.5367878446249812  0.5193123651037445   T   T   T
  0.2544376150681738  0.5454864994720887  0.5914718356659158   T   T   T
  0.2847570845749985  0.5051634147580017  0.4685728442989969   F   F   F
  0.2551518190330888  0.4765796157868384  0.6190835134578616   T   T   T
  0.2542790876736864  0.4902042234536848  0.3984368404198074   T   T   T
  0.1862242961169046  0.5108129819846625  0.5127348178423042   T   T   T
  0.2169334165592690  0.5817679990865968  0.4976282107200850   T   T   T
  0.2164344796287443  0.5722606122305786  0.6186979744808516   T   T   T
  0.3250734155019793  0.5367302387342167  0.4594303111618319   T   T   T
  0.3026869073716074  0.4638901847974236  0.4960199960829524   T   T   T
  0.3549487894189412  0.5458819300823927  0.5815661783650916   T   T   T
  0.3240885670370162  0.5908794394482322  0.6402227894340827   T   T   T
  0.3444155455108518  0.5062021100804409  0.3535146800157698   T   T   T
  0.2830844248139127  0.4743157422334950  0.2986508646380104   T   T   T
  0.2002882810850527  0.4088893532784159  0.6450007721589917   T   T   T
  0.3166188470119536  0.5749184212408173  0.5923519994776540   T   T   T
  0.2963403993339748  0.4911867908118097  0.3462908422475824   T   T   T
  0.1938711579873033  0.4533437366691625  0.6326633576923525   T   T   T
  0.3060329343805908  0.4448873331506804  0.6224241669826184   T   T   T
  0.1939351335676967  0.4740839262684944  0.3919647670296921   T   T   T
 


