C H N O                                 
   1.00000000000000     
    17.0814999999999984    0.0000000000000000    0.0000000000000000
     0.0000000000000000   20.0000000000000000    0.0000000000000000
     0.0000000000000000    0.0000000000000000   19.7743000000000002
   C    H    N    O 
     5     9     2     3
Selective dynamics
Direct
  0.4990217579158340  0.6525091961744565  0.4486838118134884   T   T   T
  0.4176338714021171  0.6934531437934055  0.4592020006760080   T   T   T
  0.5483429683583125  0.6528573778361206  0.5101615041700143   F   F   F
  0.3694675184225389  0.6540466685955408  0.5105242243482238   T   T   T
  0.6189722989060371  0.6031906881773210  0.5004992280056157   T   T   T
  0.5295433931623137  0.6728101873094801  0.4031940517548307   T   T   T
  0.3898181503303206  0.6913912986571091  0.4103773600037925   T   T   T
  0.5707966810718830  0.7024773411377652  0.5202815899179072   T   T   T
  0.5178011909074201  0.6376523891641170  0.5552280561463689   T   T   T
  0.4494488486117874  0.7628353881703802  0.5284306831218117   T   T   T
  0.3860755442872588  0.7885092606630124  0.4720956852056020   T   T   T
  0.6993061161983292  0.6708232658541391  0.5479151913950986   T   T   T
  0.7365144280401665  0.5927787834696545  0.5205700353443632   T   T   T
  0.2990750577880874  0.5819775871262323  0.5193538089505694   T   T   T
  0.4397020868090991  0.7645584518302257  0.4784808285348490   T   T   T
  0.6902980133107164  0.6226854860403321  0.5305771311569671   T   T   T
  0.3331778191089896  0.6012237621902656  0.4846853155686475   T   T   T
  0.3690092628339769  0.6733037907639527  0.5713511271785805   T   T   T
  0.6070485182076908  0.5501678329718160  0.4744436598273722   T   T   T
 
 


