C H N O                                 
   1.00000000000000     
    20.0000000000000000    0.0000000000000000    0.0000000000000000
     0.0000000000000000   21.3509999999999991    0.0000000000000000
     0.0000000000000000    0.0000000000000000   20.0000000000000000
   C    H    N    O 
     5     9     1     4
Selective dynamics
Direct
  0.2758096077891352  0.5282444919165528  0.4902667059996872   T   T   T
  0.2555438967262731  0.5463579979886930  0.4187184231467000   T   T   T
  0.2203755251856165  0.5021466067196982  0.5305330469973839   T   T   T
  0.2353774209197042  0.4900858267587722  0.3777965301548676   T   T   T
  0.2345091116926383  0.5076236774897325  0.6023645535584734   T   T   T
  0.2837427018172960  0.5724099715782103  0.5177146689472991   T   T   T
  0.3227904281607721  0.5013843634531980  0.4932599756433547   T   T   T
  0.3031492843278940  0.5641041877055599  0.3975018752455171   T   T   T
  0.1750120884819282  0.5278327071152589  0.5212691707517578   T   T   T
  0.2061947571787641  0.4549632406617832  0.5143013202878137   T   T   T
  0.1759617772660462  0.5891836310363914  0.3753751958834002   T   T   T
  0.2219611808354500  0.6374490711817558  0.4174774208304513   T   T   T
  0.2574458508883453  0.4023078804883227  0.3601446821120291   T   T   T
  0.2013808753403907  0.4702359991775467  0.6811534051863291   T   T   T
  0.2037972722105508  0.5931642483100887  0.4181042855439614   T   T   T
  0.2754340760401846  0.4358009268922132  0.3878598298928324   T   T   T
  0.1938897657727523  0.4634966637095346  0.6328613857052332   T   T   T
  0.1930769709457891  0.4868831722824893  0.3360281127597062   T   T   T
  0.2755054463226116  0.5375515617271773  0.6326841420082800   T   T   T
 
 


