C H N O                                 
   1.00000000000000     
    17.0814999999999984    0.0000000000000000    0.0000000000000000
     0.0000000000000000   20.0000000000000000    0.0000000000000000
     0.0000000000000000    0.0000000000000000   19.7743000000000002
   C    H    N    O 
     5    10     2     3
Selective dynamics
Direct
  0.4943014927849987  0.4296874713909986  0.4575277841169978   T   T   T
  0.5833771001699972  0.4176320116200003  0.4653693508649965   T   T   T
  0.4469460297730024  0.4140362645419984  0.5214743393730004   T   T   T
  0.6170368143690013  0.4683058832619977  0.5157716948249984   T   T   T
  0.3620861316899990  0.4381250033439983  0.5145457329220022   T   T   T
  0.4831099103270020  0.4820137006780030  0.4427796749460029   T   T   T
  0.4738697317559968  0.3975276499930018  0.4157382317509999   T   T   T
  0.6105573498959984  0.4272092004040005  0.4156425205770020   T   T   T
  0.4493286853570027  0.3599877329220007  0.5329258314139977   T   T   T
  0.4724456263660031  0.4401811011359982  0.5656959215640001   T   T   T
  0.5925269109360016  0.3455101217690029  0.5366980728390018   T   T   T
  0.6578902950580030  0.3388150248109980  0.4775221632960012   T   T   T
  0.3215773080030004  0.3559972655599992  0.5709068923220002   T   T   T
  0.2505267333749970  0.4136223204530012  0.5451861521040016   T   T   T
  0.6461573527599995  0.5586228481620026  0.5247700369329991   T   T   T
  0.5993875105760011  0.3482623215619967  0.4850369744319991   T   T   T
  0.3078698037099983  0.4002171731830018  0.5485578675620033   T   T   T
  0.6276767144929991  0.5297863801069980  0.4875865352540032   T   T   T
  0.6310944006050008  0.4563609061080030  0.5752957466930013   T   T   T
  0.3438306991230036  0.4887885630360032  0.4827290413119982   T   T   T
 
  