C H N O                                 
   1.00000000000000     
    17.0814999999999984    0.0000000000000000    0.0000000000000000
     0.0000000000000000   20.0000000000000000    0.0000000000000000
     0.0000000000000000    0.0000000000000000   19.7743000000000002
   C    H    N    O 
     5     9     1     4
Selective dynamics
Direct
  0.4873752978495673  0.7354738173232818  0.4798243043703394   T   T   T
  0.5716303412192403  0.7453677836019850  0.4997938053051030   T   T   T
  0.4287984015688124  0.7455662590619809  0.5405839950921205   T   T   T
  0.5945620441701536  0.8157310091339625  0.5205298679484684   T   T   T
  0.3511993859292204  0.7152113918153873  0.5211334125350930   T   T   T
  0.4790519144635965  0.6861177404234837  0.4613526549444984   T   T   T
  0.4671284898958419  0.7717598950867952  0.4410813501381554   T   T   T
  0.6042209646112653  0.7423460950872354  0.4512430919664467   T   T   T
  0.4494074014209417  0.7270469828150823  0.5895477946955339   T   T   T
  0.4192173152610437  0.8024054419811932  0.5487199374163652   T   T   T
  0.6398319940604651  0.7269665625092472  0.5793065805800239   T   T   T
  0.6153050571554104  0.6563567093908063  0.5384532241752851   F   F   F
  0.5685340642437424  0.9055229736233130  0.4915413803661934   T   T   T
  0.2468529848992418  0.7219267488332477  0.5535975685126786   T   T   T
  0.5956016368836501  0.7034241884330967  0.5522878752959599   T   T   T
  0.5594993282973277  0.8574072210790575  0.4795825137818284   T   T   T
  0.2975416384606362  0.7448667252710024  0.5612220843266513   T   T   T
  0.6309740277639904  0.8266417756213542  0.5714463840664123   T   T   T
  0.3333613530465698  0.6735257712113523  0.4795862244778277   T   T   T
 
  0.00000000E+00  0.00000000E+00  0.00000000E+00
  0.00000000E+00  0.00000000E+00  0.00000000E+00
  0.00000000E+00  0.00000000E+00  0.00000000E+00
  0.00000000E+00  0.00000000E+00  0.00000000E+00
  0.00000000E+00  0.00000000E+00  0.00000000E+00
  0.00000000E+00  0.00000000E+00  0.00000000E+00
  0.00000000E+00  0.00000000E+00  0.00000000E+00
  0.00000000E+00  0.00000000E+00  0.00000000E+00
  0.00000000E+00  0.00000000E+00  0.00000000E+00
  0.00000000E+00  0.00000000E+00  0.00000000E+00
  0.00000000E+00  0.00000000E+00  0.00000000E+00
  0.00000000E+00  0.00000000E+00  0.00000000E+00
  0.00000000E+00  0.00000000E+00  0.00000000E+00
  0.00000000E+00  0.00000000E+00  0.00000000E+00
  0.00000000E+00  0.00000000E+00  0.00000000E+00
  0.00000000E+00  0.00000000E+00  0.00000000E+00
  0.00000000E+00  0.00000000E+00  0.00000000E+00
  0.00000000E+00  0.00000000E+00  0.00000000E+00
  0.00000000E+00  0.00000000E+00  0.00000000E+00
