C H N O                                 
   1.00000000000000     
    17.0814999999999984    0.0000000000000000    0.0000000000000000
     0.0000000000000000   20.0000000000000000    0.0000000000000000
     0.0000000000000000    0.0000000000000000   19.7743000000000002
   C    H    N    O 
   133    33     1    42
Selective dynamics
Direct
  0.0957895689295825  0.5199574952802521  0.0406011467499710   T   T   T
  0.0961410686674569  0.5297941588206996  0.2858657359406109   T   T   T
  0.0959008073831100  0.5203149665223279  0.5406331149318220   T   T   T
  0.0960624524984155  0.5297844985485867  0.7859257901365737   T   T   T
  0.5954749862744180  0.5300216412879237  0.0405504765486171   T   T   T
  0.5960178343891229  0.5297418042229154  0.2859640921865108   T   T   T
  0.5960393421091226  0.5201086747414365  0.5406807498533439   T   T   T
  0.5957478399029341  0.5291557591962146  0.7856758286342327   T   T   T
  0.1061472588721841  0.5007520335255933  0.1634069485693885   T   T   T
  0.1053393678857546  0.5202648954370659  0.4080456066078213   T   T   T
  0.1064059033204288  0.5008741513917272  0.6632286462344084   T   T   T
  0.1061013746290911  0.5006122122145058  0.9083222304502030   T   T   T
  0.6061331242723327  0.5005836425919057  0.1632670475033891   T   T   T
  0.6012698624183201  0.5054602863037445  0.4104733769048892   T   T   T
  0.6061577475180755  0.5004546635741889  0.6633881137518998   T   T   T
  0.5955130741129366  0.5206733533582337  0.9084741510508181   T   T   T
  0.3514135980772579  0.5205425438002251  0.0348509064903340   T   T   T
  0.3457751228724177  0.5199489502491943  0.2860209862881860   T   T   T
  0.3459158717242730  0.5206808726489598  0.5408016638121964   T   T   T
  0.3564408951029066  0.5208886034070730  0.7857205703160659   T   T   T
  0.8509867222942304  0.5241868581706157  0.0327642830792527   T   T   T
  0.8469706894094244  0.5204065819848083  0.2856028732724596   T   T   T
  0.8558700266370352  0.5207088027299989  0.5356895581140861   T   T   T
  0.8456433920884905  0.5204848292202655  0.7858445903778559   T   T   T
  0.3460748503693694  0.5106872386455379  0.1634738672997145   T   T   T
  0.3560142607543000  0.5104122439942458  0.4175106775467867   T   T   T
  0.3561750098986209  0.5007751599841015  0.6631591288053897   T   T   T
  0.3461080592884542  0.5102395529029735  0.9092726545052869   T   T   T
  0.8564842726549031  0.5005353228537857  0.1632153687857212   T   T   T
  0.8456822783614513  0.5202309228145907  0.4082288723302199   T   T   T
  0.8562460404751988  0.5005998005182803  0.6632478851978973   T   T   T
  0.8458330573253861  0.5006797858550982  0.9083893305920725   T   T   T
  0.1789803321246524  0.5005203512091541  0.0394360422150157   T   T   T
  0.1788805902168278  0.5007082323224878  0.2857220940835603   T   T   T
  0.1794984489463332  0.5107396146135201  0.5404025658042642   T   T   T
  0.1788799513896251  0.5007427431031459  0.7857181819418457   T   T   T
  0.6788682175954222  0.5103622892468422  0.0405216210079615   T   T   T
  0.6787915491193957  0.5014286622940958  0.2857644858024031   T   T   T
  0.6798699790873926  0.5107170623082880  0.5406930825946219   T   T   T
  0.6790273210764468  0.5008282105368380  0.7858292572560401   T   T   T
  0.1896161136526473  0.5301941609051468  0.1630172267361019   T   T   T
  0.1803886470928049  0.5107759820610411  0.4085750927288885   T   T   T
  0.1896265266581594  0.5303342133507201  0.6630805091289673   T   T   T
  0.1897858296402006  0.5198227321089064  0.9086747847672996   T   T   T
  0.6899966747043891  0.5111012945882720  0.1636726225113350   T   T   T
  0.6895303837596387  0.5304633881484975  0.4092917015960325   T   T   T
  0.6900922238521403  0.5107375098275710  0.6631942783659639   T   T   T
  0.6790434047681728  0.5312687840266719  0.9081311247889445   T   T   T
  0.4364145847417618  0.5100237381551622  0.0372794521475370   T   T   T
  0.4299026070238128  0.5101675594768054  0.2859626717601529   T   T   T
  0.4311073482452130  0.5140213271212488  0.5409039967038964   T   T   T
  0.4400259637438282  0.5104241963399900  0.7857058241552721   T   T   T
  0.9396351834383623  0.5108451785199435  0.0306929607049042   T   T   T
  0.9384905331813869  0.5101336886820320  0.2856059944614699   T   T   T
  0.9402674404645808  0.5102120326356143  0.5393234543380316   T   T   T
  0.9295249381707009  0.5097989695881111  0.7857315478528548   T   T   T
  0.4291464824608866  0.5307624887630169  0.1632971449590102   T   T   T
  0.4397804429092673  0.5301861364086236  0.4180976787123214   T   T   T
  0.4386514885130097  0.5304573783039004  0.6633096757155528   T   T   T
  0.4294639344070958  0.5302424264176295  0.9083285283525981   T   T   T
  0.9390454605671508  0.5306282521404597  0.1627137958859848   T   T   T
  0.9291933860913275  0.5206396513634246  0.4095023144728103   T   T   T
  0.9386171489254593  0.5305297589789078  0.6632245296334958   T   T   T
  0.9291940014861879  0.5306048583471821  0.9083638143023691   T   T   T
  0.2261118013796306  0.5005454161472329  0.1018403784383395   T   T   T
  0.2260085805344545  0.5096348367446240  0.3471032413392479   T   T   T
  0.2265011255663865  0.5105423024174698  0.6007722845858297   T   T   T
  0.2262734938864099  0.5010702483529244  0.8469080451385409   T   T   T
  0.7264841782328446  0.5006562049859511  0.1017086080596386   T   T   T
  0.7261181645021608  0.5011077174094751  0.3472552731843734   T   T   T
  0.7257800551230176  0.5106438855969699  0.6018337331441117   T   T   T
  0.7254673327856125  0.5096168014925908  0.8470488399621416   T   T   T
  0.2262043986220093  0.5102597836888378  0.2246456130498373   T   T   T
  0.2250182183758440  0.5113249380665579  0.4722012117484056   T   T   T
  0.2271279792336998  0.5108400776759652  0.7247223204521376   T   T   T
  0.2255685397108991  0.5107953861318677  0.9695902490569424   T   T   T
  0.7260375830420216  0.5197870192843013  0.2243753174322194   T   T   T
  0.7262550103505063  0.5107102747428343  0.4793397221082785   T   T   T
  0.7265380214427282  0.5106834121884134  0.7244905598858082   T   T   T
  0.7203755464220194  0.5161890943154290  0.9720960947664423   T   T   T
  0.4760880757857180  0.5110252282876857  0.1020533077927794   T   T   T
  0.4760499217044369  0.5203703102278254  0.3484942017025503   T   T   T
  0.4764682570110139  0.5110070180577466  0.6016623203336522   T   T   T
  0.4762448569310038  0.5108144421625980  0.8469358038032837   T   T   T
  0.9764482422952341  0.5202117909397543  0.0934074756442982   T   T   T
  0.9763093848195936  0.5201851938445117  0.3473571441882086   T   T   T
  0.9767395058384665  0.5109559152512730  0.6016578960428660   T   T   T
  0.9758519527447476  0.5195111280187561  0.8469794963150150   T   T   T
  0.4764023023518291  0.5110692189860657  0.2244033621099177   T   T   T
  0.4762054624128496  0.5208529485670041  0.4795783789063464   T   T   T
  0.4770499843144549  0.5108557678699768  0.7245683861997705   T   T   T
  0.4762966337697776  0.5004807485030582  0.9694585247667007   T   T   T
  0.9805992710390683  0.5140576001869448  0.2241850898223419   T   T   T
  0.9753859322875584  0.5108245473875499  0.4695992862802356   T   T   T
  0.9768955870636731  0.5109286376915279  0.7245361473806895   T   T   T
  0.9761105162211976  0.5106900779125780  0.9694410014665635   T   T   T
  0.0593604917725017  0.5200348730821389  0.1016620705677340   T   T   T
  0.0599035867863549  0.5308678222203014  0.3470126580640809   T   T   T
  0.0594205923400324  0.5199238895080640  0.6018787637839083   T   T   T
  0.0598291846500487  0.5302760917196920  0.8469628432238494   T   T   T
  0.5597398547697878  0.5298950201434991  0.1019528234265792   T   T   T
  0.5595724870142931  0.5304809052047048  0.3470011876041426   T   T   T
  0.5590395944915301  0.5197768753820640  0.6020288303786643   T   T   T
  0.5578817310650024  0.5204033295592509  0.8468872302601085   T   T   T
  0.0593356573839401  0.5207828692891496  0.2244535149115947   T   T   T
  0.0592597901222760  0.5309682085251382  0.4695983524023220   T   T   T
  0.0587866437749796  0.5203676730149240  0.7244840471446921   T   T   T
  0.0599542211403730  0.5308098016561971  0.9695279232086307   T   T   T
  0.5587226804841592  0.5205936112590379  0.2244311465837612   T   T   T
  0.5592278575664125  0.5205903616653558  0.4793748847071129   F   F   F
  0.5592882684624669  0.5206698471444824  0.7245479710189855   T   T   T
  0.5594028010772760  0.5210657875171023  0.9696840638994715   T   T   T
  0.3091323591981237  0.5199552379831189  0.1015489436295027   T   T   T
  0.3096882085889447  0.5208934992275047  0.3470810474547577   T   T   T
  0.3089951092447834  0.5197597262868214  0.6019226636919512   T   T   T
  0.3092131574575347  0.5197815148361613  0.8469163100354820   T   T   T
  0.8101397200282108  0.5202565352308355  0.1016969136565109   T   T   T
  0.8092004889948683  0.5200471929506065  0.3468965977908596   T   T   T
  0.8098971693110926  0.5206230531545657  0.6018368125892835   T   T   T
  0.8089716541041483  0.5201385871788347  0.8467920588571118   T   T   T
  0.3086844767639789  0.5104826835223975  0.2244120382525665   T   T   T
  0.3083405947212370  0.5208525383885814  0.4792815911793795   T   T   T
  0.3090310808790591  0.5197550611665278  0.7245638506955743   T   T   T
  0.3093722089146098  0.5104800731607639  0.9694997447349536   T   T   T
  0.8095742106718546  0.5206436069106104  0.2246104990090103   T   T   T
  0.8090668146697624  0.5104789311841245  0.4708960615844333   T   T   T
  0.8089887148188524  0.5200678701736834  0.7244871835954640   T   T   T
  0.7984744855367438  0.5199379035273424  0.9696470904106889   T   T   T
  0.4873752978495673  0.7354738173232818  0.4798243043703394   T   T   T
  0.5716303412192403  0.7453677836019850  0.4997938053051030   T   T   T
  0.4287984015688124  0.7455662590619809  0.5405839950921205   T   T   T
  0.5945620441701536  0.8157310091339625  0.5205298679484684   T   T   T
  0.3511993859292204  0.7152113918153873  0.5211334125350930   T   T   T
  0.0036880467501206  0.6197371052713052  0.4520904521669209   T   T   T
  0.0149897719715355  0.6198549677457663  0.9512795635336460   T   T   T
  0.1564354214637760  0.6217699821428297  0.1329213796477760   T   T   T
  0.1574895775824601  0.6249393391355298  0.6349652266017571   T   T   T
  0.6581900969243719  0.6248896400419000  0.3826742790768733   T   T   T
  0.6575301696252183  0.6300213858291812  0.8798147772243325   T   T   T
  0.4329918964153663  0.4173548209426556  0.9527773922220177   T   T   T
  0.0505458013668019  0.4208978060541426  0.1813727686206406   T   T   T
  0.0506854349540617  0.4255091833147162  0.6782832029401504   T   T   T
  0.0597987503427007  0.4106334034521026  0.9280055195755921   T   T   T
  0.5505625113817985  0.4208146739021430  0.1813264440975502   T   T   T
  0.5606444328402276  0.4095466816945290  0.4283826120264251   T   T   T
  0.5505308584734507  0.4207911096104624  0.6813325492283866   T   T   T
  0.3008335964639599  0.4240416740381860  0.4260534337157935   T   T   T
  0.3005290346276439  0.4208407884277676  0.6710598334546916   T   T   T
  0.8009667420473221  0.4183656955420290  0.1727101212816109   T   T   T
  0.8009910001663343  0.4189159026993678  0.6732154146432876   T   T   T
  0.8010851978033529  0.4177211994918792  0.9283471705302304   T   T   T
  0.3956797874651272  0.6292954167871727  0.1805607663076003   T   T   T
  0.3944670754622166  0.6217104136330960  0.6834199819224338   T   T   T
  0.3945063661335553  0.6221258876720910  0.9279117302704094   T   T   T
  0.8944330389985140  0.6217581140983413  0.1833930438168139   T   T   T
  0.8958631006522850  0.6272347646677900  0.6810760961932658   T   T   T
  0.8951226677111777  0.6224415910081404  0.9285010100590938   T   T   T
  0.4790519144635965  0.6861177404234837  0.4613526549444984   T   T   T
  0.4671284898958419  0.7717598950867952  0.4410813501381554   T   T   T
  0.6042209646112653  0.7423460950872354  0.4512430919664467   T   T   T
  0.4494074014209417  0.7270469828150823  0.5895477946955339   T   T   T
  0.4192173152610437  0.8024054419811932  0.5487199374163652   T   T   T
  0.6398319940604651  0.7269665625092472  0.5793065805800239   T   T   T
  0.6153050571554104  0.6563567093908063  0.5384532241752851   T   T   T
  0.5685340642437424  0.9055229736233130  0.4915413803661934   T   T   T
  0.2468529848992418  0.7219267488332477  0.5535975685126786   T   T   T
  0.5956016368836501  0.7034241884330967  0.5522878752959599   T   T   T
  0.3332464810226909  0.5816809242505769  0.0713749659482517   T   T   T
  0.3332820648676531  0.5817949571354077  0.8264408009660897   T   T   T
  0.8332576078796095  0.5817220219974004  0.0714358755116251   T   T   T
  0.8332861684825446  0.5816764712333722  0.5714032978031511   T   T   T
  0.2023910765168111  0.4388430389793854  0.0714408454698656   T   T   T
  0.2023447240909704  0.4389209742759732  0.3264439120112783   T   T   T
  0.2023599938944969  0.4387903338049739  0.8264278879338605   T   T   T
  0.7023472203664056  0.4389374771067622  0.0713780473030212   T   T   T
  0.7023862564825407  0.4388547924479766  0.3264244530241953   T   T   T
  0.7023218959185442  0.4389935840507704  0.8264926263971475   T   T   T
  0.4641774120335782  0.4490365438029258  0.0715321855431981   T   T   T
  0.4641961161869830  0.4491477751414408  0.3265131757778761   T   T   T
  0.9642231496501736  0.4490777135973758  0.3264925090759974   T   T   T
  0.9642028223166790  0.4491368047080897  0.8264970896582540   T   T   T
  0.0593771182909464  0.6023470663701005  0.4592149638826584   T   T   T
  0.0713031957108186  0.6021388440947888  0.9591883174601321   T   T   T
  0.2022998272341709  0.6020420099348627  0.1530833915759828   T   T   T
  0.2023007128736936  0.6021553828902668  0.6531146105818095   T   T   T
  0.7022372524495921  0.6021137797295992  0.4081167860639141   T   T   T
  0.6905045737835778  0.6022785902270300  0.9081759125817683   T   T   T
  0.4878937800667700  0.4285826754560986  0.9691879075713814   T   T   T
  0.1070899258230327  0.4286303959442748  0.1734591250570290   T   T   T
  0.1070693531332481  0.4286356891793517  0.6633025766810832   T   T   T
  0.1070682712735689  0.4286194516003619  0.9081922416475763   T   T   T
  0.6062289293175525  0.4283393921193053  0.1683435445690193   T   T   T
  0.6070856660502528  0.4287348276850409  0.4081907778822895   T   T   T
  0.6070320258662392  0.4285283005704628  0.6734474438052303   T   T   T
  0.3570496114250972  0.4386211815238426  0.4183889614417851   T   T   T
  0.3571040158092273  0.4286107164644264  0.6632859752607771   T   T   T
  0.8570790004681896  0.4285942923906987  0.1632880259624017   T   T   T
  0.8570741883709161  0.4285968427820563  0.6632861650357427   T   T   T
  0.8570133095502754  0.4286349908443086  0.9183698806034428   T   T   T
  0.4403894869548211  0.6022331812323145  0.1633071082095725   T   T   T
  0.4404234827970654  0.6021314739542163  0.6632602079218088   T   T   T
  0.4404488370413659  0.6020777207688610  0.9082095361565337   T   T   T
  0.9404237996459415  0.6021862199664412  0.1632892854201771   T   T   T
  0.9404481553206949  0.6021954009095509  0.6632799911772054   T   T   T
  0.9403104222687659  0.6022124103852136  0.9081930663273852   T   T   T
  0.5594993282973277  0.8574072210790575  0.4795825137818284   T   T   T
  0.2975416384606362  0.7448667252710024  0.5612220843266513   T   T   T
  0.6309740277639904  0.8266417756213542  0.5714463840664123   T   T   T
  0.3333613530465698  0.6735257712113523  0.4795862244778277   T   T   T
 
  0.00000000E+00  0.00000000E+00  0.00000000E+00
  0.00000000E+00  0.00000000E+00  0.00000000E+00
  0.00000000E+00  0.00000000E+00  0.00000000E+00
  0.00000000E+00  0.00000000E+00  0.00000000E+00
  0.00000000E+00  0.00000000E+00  0.00000000E+00
  0.00000000E+00  0.00000000E+00  0.00000000E+00
  0.00000000E+00  0.00000000E+00  0.00000000E+00
  0.00000000E+00  0.00000000E+00  0.00000000E+00
  0.00000000E+00  0.00000000E+00  0.00000000E+00
  0.00000000E+00  0.00000000E+00  0.00000000E+00
  0.00000000E+00  0.00000000E+00  0.00000000E+00
  0.00000000E+00  0.00000000E+00  0.00000000E+00
  0.00000000E+00  0.00000000E+00  0.00000000E+00
  0.00000000E+00  0.00000000E+00  0.00000000E+00
  0.00000000E+00  0.00000000E+00  0.00000000E+00
  0.00000000E+00  0.00000000E+00  0.00000000E+00
  0.00000000E+00  0.00000000E+00  0.00000000E+00
  0.00000000E+00  0.00000000E+00  0.00000000E+00
  0.00000000E+00  0.00000000E+00  0.00000000E+00
  0.00000000E+00  0.00000000E+00  0.00000000E+00
  0.00000000E+00  0.00000000E+00  0.00000000E+00
  0.00000000E+00  0.00000000E+00  0.00000000E+00
  0.00000000E+00  0.00000000E+00  0.00000000E+00
  0.00000000E+00  0.00000000E+00  0.00000000E+00
  0.00000000E+00  0.00000000E+00  0.00000000E+00
  0.00000000E+00  0.00000000E+00  0.00000000E+00
  0.00000000E+00  0.00000000E+00  0.00000000E+00
  0.00000000E+00  0.00000000E+00  0.00000000E+00
  0.00000000E+00  0.00000000E+00  0.00000000E+00
  0.00000000E+00  0.00000000E+00  0.00000000E+00
  0.00000000E+00  0.00000000E+00  0.00000000E+00
  0.00000000E+00  0.00000000E+00  0.00000000E+00
  0.00000000E+00  0.00000000E+00  0.00000000E+00
  0.00000000E+00  0.00000000E+00  0.00000000E+00
  0.00000000E+00  0.00000000E+00  0.00000000E+00
  0.00000000E+00  0.00000000E+00  0.00000000E+00
  0.00000000E+00  0.00000000E+00  0.00000000E+00
  0.00000000E+00  0.00000000E+00  0.00000000E+00
  0.00000000E+00  0.00000000E+00  0.00000000E+00
  0.00000000E+00  0.00000000E+00  0.00000000E+00
  0.00000000E+00  0.00000000E+00  0.00000000E+00
  0.00000000E+00  0.00000000E+00  0.00000000E+00
  0.00000000E+00  0.00000000E+00  0.00000000E+00
  0.00000000E+00  0.00000000E+00  0.00000000E+00
  0.00000000E+00  0.00000000E+00  0.00000000E+00
  0.00000000E+00  0.00000000E+00  0.00000000E+00
  0.00000000E+00  0.00000000E+00  0.00000000E+00
  0.00000000E+00  0.00000000E+00  0.00000000E+00
  0.00000000E+00  0.00000000E+00  0.00000000E+00
  0.00000000E+00  0.00000000E+00  0.00000000E+00
  0.00000000E+00  0.00000000E+00  0.00000000E+00
  0.00000000E+00  0.00000000E+00  0.00000000E+00
  0.00000000E+00  0.00000000E+00  0.00000000E+00
  0.00000000E+00  0.00000000E+00  0.00000000E+00
  0.00000000E+00  0.00000000E+00  0.00000000E+00
  0.00000000E+00  0.00000000E+00  0.00000000E+00
  0.00000000E+00  0.00000000E+00  0.00000000E+00
  0.00000000E+00  0.00000000E+00  0.00000000E+00
  0.00000000E+00  0.00000000E+00  0.00000000E+00
  0.00000000E+00  0.00000000E+00  0.00000000E+00
  0.00000000E+00  0.00000000E+00  0.00000000E+00
  0.00000000E+00  0.00000000E+00  0.00000000E+00
  0.00000000E+00  0.00000000E+00  0.00000000E+00
  0.00000000E+00  0.00000000E+00  0.00000000E+00
  0.00000000E+00  0.00000000E+00  0.00000000E+00
  0.00000000E+00  0.00000000E+00  0.00000000E+00
  0.00000000E+00  0.00000000E+00  0.00000000E+00
  0.00000000E+00  0.00000000E+00  0.00000000E+00
  0.00000000E+00  0.00000000E+00  0.00000000E+00
  0.00000000E+00  0.00000000E+00  0.00000000E+00
  0.00000000E+00  0.00000000E+00  0.00000000E+00
  0.00000000E+00  0.00000000E+00  0.00000000E+00
  0.00000000E+00  0.00000000E+00  0.00000000E+00
  0.00000000E+00  0.00000000E+00  0.00000000E+00
  0.00000000E+00  0.00000000E+00  0.00000000E+00
  0.00000000E+00  0.00000000E+00  0.00000000E+00
  0.00000000E+00  0.00000000E+00  0.00000000E+00
  0.00000000E+00  0.00000000E+00  0.00000000E+00
  0.00000000E+00  0.00000000E+00  0.00000000E+00
  0.00000000E+00  0.00000000E+00  0.00000000E+00
  0.00000000E+00  0.00000000E+00  0.00000000E+00
  0.00000000E+00  0.00000000E+00  0.00000000E+00
  0.00000000E+00  0.00000000E+00  0.00000000E+00
  0.00000000E+00  0.00000000E+00  0.00000000E+00
  0.00000000E+00  0.00000000E+00  0.00000000E+00
  0.00000000E+00  0.00000000E+00  0.00000000E+00
  0.00000000E+00  0.00000000E+00  0.00000000E+00
  0.00000000E+00  0.00000000E+00  0.00000000E+00
  0.00000000E+00  0.00000000E+00  0.00000000E+00
  0.00000000E+00  0.00000000E+00  0.00000000E+00
  0.00000000E+00  0.00000000E+00  0.00000000E+00
  0.00000000E+00  0.00000000E+00  0.00000000E+00
  0.00000000E+00  0.00000000E+00  0.00000000E+00
  0.00000000E+00  0.00000000E+00  0.00000000E+00
  0.00000000E+00  0.00000000E+00  0.00000000E+00
  0.00000000E+00  0.00000000E+00  0.00000000E+00
  0.00000000E+00  0.00000000E+00  0.00000000E+00
  0.00000000E+00  0.00000000E+00  0.00000000E+00
  0.00000000E+00  0.00000000E+00  0.00000000E+00
  0.00000000E+00  0.00000000E+00  0.00000000E+00
  0.00000000E+00  0.00000000E+00  0.00000000E+00
  0.00000000E+00  0.00000000E+00  0.00000000E+00
  0.00000000E+00  0.00000000E+00  0.00000000E+00
  0.00000000E+00  0.00000000E+00  0.00000000E+00
  0.00000000E+00  0.00000000E+00  0.00000000E+00
  0.00000000E+00  0.00000000E+00  0.00000000E+00
  0.00000000E+00  0.00000000E+00  0.00000000E+00
  0.00000000E+00  0.00000000E+00  0.00000000E+00
  0.00000000E+00  0.00000000E+00  0.00000000E+00
  0.00000000E+00  0.00000000E+00  0.00000000E+00
  0.00000000E+00  0.00000000E+00  0.00000000E+00
  0.00000000E+00  0.00000000E+00  0.00000000E+00
  0.00000000E+00  0.00000000E+00  0.00000000E+00
  0.00000000E+00  0.00000000E+00  0.00000000E+00
  0.00000000E+00  0.00000000E+00  0.00000000E+00
  0.00000000E+00  0.00000000E+00  0.00000000E+00
  0.00000000E+00  0.00000000E+00  0.00000000E+00
  0.00000000E+00  0.00000000E+00  0.00000000E+00
  0.00000000E+00  0.00000000E+00  0.00000000E+00
  0.00000000E+00  0.00000000E+00  0.00000000E+00
  0.00000000E+00  0.00000000E+00  0.00000000E+00
  0.00000000E+00  0.00000000E+00  0.00000000E+00
  0.00000000E+00  0.00000000E+00  0.00000000E+00
  0.00000000E+00  0.00000000E+00  0.00000000E+00
  0.00000000E+00  0.00000000E+00  0.00000000E+00
  0.00000000E+00  0.00000000E+00  0.00000000E+00
  0.00000000E+00  0.00000000E+00  0.00000000E+00
  0.00000000E+00  0.00000000E+00  0.00000000E+00
  0.00000000E+00  0.00000000E+00  0.00000000E+00
  0.00000000E+00  0.00000000E+00  0.00000000E+00
  0.00000000E+00  0.00000000E+00  0.00000000E+00
  0.00000000E+00  0.00000000E+00  0.00000000E+00
  0.00000000E+00  0.00000000E+00  0.00000000E+00
  0.00000000E+00  0.00000000E+00  0.00000000E+00
  0.00000000E+00  0.00000000E+00  0.00000000E+00
  0.00000000E+00  0.00000000E+00  0.00000000E+00
  0.00000000E+00  0.00000000E+00  0.00000000E+00
  0.00000000E+00  0.00000000E+00  0.00000000E+00
  0.00000000E+00  0.00000000E+00  0.00000000E+00
  0.00000000E+00  0.00000000E+00  0.00000000E+00
  0.00000000E+00  0.00000000E+00  0.00000000E+00
  0.00000000E+00  0.00000000E+00  0.00000000E+00
  0.00000000E+00  0.00000000E+00  0.00000000E+00
  0.00000000E+00  0.00000000E+00  0.00000000E+00
  0.00000000E+00  0.00000000E+00  0.00000000E+00
  0.00000000E+00  0.00000000E+00  0.00000000E+00
  0.00000000E+00  0.00000000E+00  0.00000000E+00
  0.00000000E+00  0.00000000E+00  0.00000000E+00
  0.00000000E+00  0.00000000E+00  0.00000000E+00
  0.00000000E+00  0.00000000E+00  0.00000000E+00
  0.00000000E+00  0.00000000E+00  0.00000000E+00
  0.00000000E+00  0.00000000E+00  0.00000000E+00
  0.00000000E+00  0.00000000E+00  0.00000000E+00
  0.00000000E+00  0.00000000E+00  0.00000000E+00
  0.00000000E+00  0.00000000E+00  0.00000000E+00
  0.00000000E+00  0.00000000E+00  0.00000000E+00
  0.00000000E+00  0.00000000E+00  0.00000000E+00
  0.00000000E+00  0.00000000E+00  0.00000000E+00
  0.00000000E+00  0.00000000E+00  0.00000000E+00
  0.00000000E+00  0.00000000E+00  0.00000000E+00
  0.00000000E+00  0.00000000E+00  0.00000000E+00
  0.00000000E+00  0.00000000E+00  0.00000000E+00
  0.00000000E+00  0.00000000E+00  0.00000000E+00
  0.00000000E+00  0.00000000E+00  0.00000000E+00
  0.00000000E+00  0.00000000E+00  0.00000000E+00
  0.00000000E+00  0.00000000E+00  0.00000000E+00
  0.00000000E+00  0.00000000E+00  0.00000000E+00
  0.00000000E+00  0.00000000E+00  0.00000000E+00
  0.00000000E+00  0.00000000E+00  0.00000000E+00
  0.00000000E+00  0.00000000E+00  0.00000000E+00
  0.00000000E+00  0.00000000E+00  0.00000000E+00
  0.00000000E+00  0.00000000E+00  0.00000000E+00
  0.00000000E+00  0.00000000E+00  0.00000000E+00
  0.00000000E+00  0.00000000E+00  0.00000000E+00
  0.00000000E+00  0.00000000E+00  0.00000000E+00
  0.00000000E+00  0.00000000E+00  0.00000000E+00
  0.00000000E+00  0.00000000E+00  0.00000000E+00
  0.00000000E+00  0.00000000E+00  0.00000000E+00
  0.00000000E+00  0.00000000E+00  0.00000000E+00
  0.00000000E+00  0.00000000E+00  0.00000000E+00
  0.00000000E+00  0.00000000E+00  0.00000000E+00
  0.00000000E+00  0.00000000E+00  0.00000000E+00
  0.00000000E+00  0.00000000E+00  0.00000000E+00
  0.00000000E+00  0.00000000E+00  0.00000000E+00
  0.00000000E+00  0.00000000E+00  0.00000000E+00
  0.00000000E+00  0.00000000E+00  0.00000000E+00
  0.00000000E+00  0.00000000E+00  0.00000000E+00
  0.00000000E+00  0.00000000E+00  0.00000000E+00
  0.00000000E+00  0.00000000E+00  0.00000000E+00
  0.00000000E+00  0.00000000E+00  0.00000000E+00
  0.00000000E+00  0.00000000E+00  0.00000000E+00
  0.00000000E+00  0.00000000E+00  0.00000000E+00
  0.00000000E+00  0.00000000E+00  0.00000000E+00
  0.00000000E+00  0.00000000E+00  0.00000000E+00
  0.00000000E+00  0.00000000E+00  0.00000000E+00
  0.00000000E+00  0.00000000E+00  0.00000000E+00
  0.00000000E+00  0.00000000E+00  0.00000000E+00
  0.00000000E+00  0.00000000E+00  0.00000000E+00
  0.00000000E+00  0.00000000E+00  0.00000000E+00
  0.00000000E+00  0.00000000E+00  0.00000000E+00
  0.00000000E+00  0.00000000E+00  0.00000000E+00
  0.00000000E+00  0.00000000E+00  0.00000000E+00
  0.00000000E+00  0.00000000E+00  0.00000000E+00
  0.00000000E+00  0.00000000E+00  0.00000000E+00
  0.00000000E+00  0.00000000E+00  0.00000000E+00
  0.00000000E+00  0.00000000E+00  0.00000000E+00
  0.00000000E+00  0.00000000E+00  0.00000000E+00
  0.00000000E+00  0.00000000E+00  0.00000000E+00
  0.00000000E+00  0.00000000E+00  0.00000000E+00
