C H N O                                 
   1.00000000000000     
    17.0814999999999984    0.0000000000000000    0.0000000000000000
     0.0000000000000000   20.0000000000000000    0.0000000000000000
     0.0000000000000000    0.0000000000000000   19.7743000000000002
   C    H    N    O 
   133    74     2    99
Selective dynamics
Direct
  0.1057787632350013  0.1315530219539980  0.0335526994900022   T   T   T
  0.1057787632350013  0.1315530219539980  0.2835532284650029   T   T   T
  0.1057787632350013  0.1315530219539980  0.5335537574400036   T   T   T
  0.1057787632350013  0.1315530219539980  0.7835542864149971   T   T   T
  0.6057787632350013  0.1315530219539980  0.0335526994900022   T   T   T
  0.6057787632350013  0.1315530219539980  0.2835532284650029   T   T   T
  0.6057787632350013  0.1315530219539980  0.5335537574400036   T   T   T
  0.6057787632350013  0.1315530219539980  0.7835542864149971   T   T   T
  0.1062262098620010  0.1028130894770030  0.1580304998280013   T   T   T
  0.1062262098620010  0.1028130894770030  0.4080310288020002   T   T   T
  0.1062262098620010  0.1028130894770030  0.6580315577770008   T   T   T
  0.1062262098620010  0.1028130894770030  0.9080320867520015   T   T   T
  0.6062262098620010  0.1028130894770030  0.1580304998280013   T   T   T
  0.6062262098620010  0.1028130894770030  0.4080310288020002   T   T   T
  0.6062262098620010  0.1028130894770030  0.6580315577770008   T   T   T
  0.6062262098620010  0.1028130894770030  0.9080320867520015   T   T   T
  0.3561484714379972  0.1231070358030024  0.0343561853620002   T   T   T
  0.3561484714379972  0.1231070358030024  0.2843567143359991   T   T   T
  0.3561484714379972  0.1231070358030024  0.5343572433109998   T   T   T
  0.3561484714379972  0.1231070358030024  0.7843577722860005   T   T   T
  0.8561484714379972  0.1231070358030024  0.0343561853620002   T   T   T
  0.8561484714379972  0.1231070358030024  0.2843567143359991   T   T   T
  0.8561484714379972  0.1231070358030024  0.5343572433109998   T   T   T
  0.8561484714379972  0.1231070358030024  0.7843577722860005   T   T   T
  0.3560991003329974  0.1023734452340008  0.1581354102169996   T   T   T
  0.3560991003329974  0.1023734452340008  0.4081359391920003   T   T   T
  0.3560991003329974  0.1023734452340008  0.6581364681670010   T   T   T
  0.3560991003329974  0.1023734452340008  0.9081369971409998   T   T   T
  0.8560991003329974  0.1023734452340008  0.1581354102169996   T   T   T
  0.8560991003329974  0.1023734452340008  0.4081359391920003   T   T   T
  0.8560991003329974  0.1023734452340008  0.6581364681670010   T   T   T
  0.8560991003329974  0.1023734452340008  0.9081369971409998   T   T   T
  0.1859446041120023  0.1023328734899991  0.0338385110280015   T   T   T
  0.1859446041120023  0.1023328734899991  0.2838390400030022   T   T   T
  0.1859446041120023  0.1023328734899991  0.5338395689780029   T   T   T
  0.1859446041120023  0.1023328734899991  0.7838400979530036   T   T   T
  0.6859446041120023  0.1023328734899991  0.0338385110280015   T   T   T
  0.6859446041120023  0.1023328734899991  0.2838390400030022   T   T   T
  0.6859446041120023  0.1023328734899991  0.5338395689780029   T   T   T
  0.6859446041120023  0.1023328734899991  0.7838400979530036   T   T   T
  0.1894614839790023  0.1321647948909970  0.1578783443399985   T   T   T
  0.1894614839790023  0.1321647948909970  0.4078788733149992   T   T   T
  0.1894614839790023  0.1321647948909970  0.6578794022899999   T   T   T
  0.1894614839790023  0.1321647948909970  0.9078799312639987   T   T   T
  0.6894614839790023  0.1321647948909970  0.1578783443399985   T   T   T
  0.6894614839790023  0.1321647948909970  0.4078788733149992   T   T   T
  0.6894614839790023  0.1321647948909970  0.6578794022899999   T   T   T
  0.6894614839790023  0.1321647948909970  0.9078799312639987   T   T   T
  0.4397303413949984  0.1114226719209981  0.0319332525820002   T   T   T
  0.4397303413949984  0.1114226719209981  0.2819337815570009   T   T   T
  0.4397303413949984  0.1114226719209981  0.5319343105320016   T   T   T
  0.4397303413949984  0.1114226719209981  0.7819348395060004   T   T   T
  0.9397303413949984  0.1114226719209981  0.0319332525820002   T   T   T
  0.9397303413949984  0.1114226719209981  0.2819337815570009   T   T   T
  0.9397303413949984  0.1114226719209981  0.5319343105320016   T   T   T
  0.9397303413949984  0.1114226719209981  0.7819348395060004   T   T   T
  0.4387694469689976  0.1328566935220010  0.1581465656099965   T   T   T
  0.4387694469689976  0.1328566935220010  0.4081470945840024   T   T   T
  0.4387694469689976  0.1328566935220010  0.6581476235590031   T   T   T
  0.4387694469689976  0.1328566935220010  0.9081481525339967   T   T   T
  0.9387694469689976  0.1328566935220010  0.1581465656099965   T   T   T
  0.9387694469689976  0.1328566935220010  0.4081470945840024   T   T   T
  0.9387694469689976  0.1328566935220010  0.6581476235590031   T   T   T
  0.9387694469689976  0.1328566935220010  0.9081481525339967   T   T   T
  0.2270129236050025  0.1028219080640014  0.0968946142499973   T   T   T
  0.2270129236050025  0.1028219080640014  0.3468951432249980   T   T   T
  0.2270129236050025  0.1028219080640014  0.5968956721999987   T   T   T
  0.2270129236050025  0.1028219080640014  0.8468962011739976   T   T   T
  0.7270129236050025  0.1028219080640014  0.0968946142499973   T   T   T
  0.7270129236050025  0.1028219080640014  0.3468951432249980   T   T   T
  0.7270129236050025  0.1028219080640014  0.5968956721999987   T   T   T
  0.7270129236050025  0.1028219080640014  0.8468962011739976   T   T   T
  0.2279376166359981  0.1019533965439976  0.2188055416799983   T   T   T
  0.2279376166359981  0.1019533965439976  0.4688060706549990   T   T   T
  0.2279376166359981  0.1019533965439976  0.7188065996299997   T   T   T
  0.2279376166359981  0.1019533965439976  0.9688071286039985   T   T   T
  0.7279376166359981  0.1019533965439976  0.2188055416799983   T   T   T
  0.7279376166359981  0.1019533965439976  0.4688060706549990   T   T   T
  0.7279376166359981  0.1019533965439976  0.7188065996299997   T   T   T
  0.7279376166359981  0.1019533965439976  0.9688071286039985   T   T   T
  0.4773288877450028  0.1128940222640011  0.0966787052820024   T   T   T
  0.4773288877450028  0.1128940222640011  0.3466792342570031   T   T   T
  0.4773288877450028  0.1128940222640011  0.5966797632319967   T   T   T
  0.4773288877450028  0.1128940222640011  0.8466802922060026   T   T   T
  0.9773288877450028  0.1128940222640011  0.0966787052820024   T   T   T
  0.9773288877450028  0.1128940222640011  0.3466792342570031   T   T   T
  0.9773288877450028  0.1128940222640011  0.5966797632319967   T   T   T
  0.9773288877450028  0.1128940222640011  0.8466802922060026   T   T   T
  0.4806109181060023  0.1022414445059994  0.2176333898580012   T   T   T
  0.4806109181060023  0.1022414445059994  0.4676339188320000   T   T   T
  0.4806109181060023  0.1022414445059994  0.7176344478070007   T   T   T
  0.4806109181060023  0.1022414445059994  0.9676349767820014   T   T   T
  0.9806109181060023  0.1022414445059994  0.2176333898580012   T   T   T
  0.9806109181060023  0.1022414445059994  0.4676339188320000   T   T   T
  0.9806109181060023  0.1022414445059994  0.7176344478070007   T   T   T
  0.9806109181060023  0.1022414445059994  0.9676349767820014   T   T   T
  0.0603500469909974  0.1316826639179993  0.0968616450229973   T   T   T
  0.0603500469909974  0.1316826639179993  0.3468621739979980   T   T   T
  0.0603500469909974  0.1316826639179993  0.5968627029719968   T   T   T
  0.0603500469909974  0.1316826639179993  0.8468632319469975   T   T   T
  0.5603500469909974  0.1316826639179993  0.0968616450229973   T   T   T
  0.5603500469909974  0.1316826639179993  0.3468621739979980   T   T   T
  0.5603500469909974  0.1316826639179993  0.5968627029719968   T   T   T
  0.5603500469909974  0.1316826639179993  0.8468632319469975   T   T   T
  0.0611336295029972  0.1335360776390004  0.2174955714589970   T   T   T
  0.0611336295029972  0.1335360776390004  0.4674961004339977   T   T   T
  0.0611336295029972  0.1335360776390004  0.7174966294089984   T   T   T
  0.0611336295029972  0.1335360776390004  0.9674971583839991   T   T   T
  0.5611336295029972  0.1335360776390004  0.2174955714589970   T   T   T
  0.5611336295029972  0.1335360776390004  0.4674961004339977   T   T   T
  0.5611336295029972  0.1335360776390004  0.7174966294089984   T   T   T
  0.5611336295029972  0.1335360776390004  0.9674971583839991   T   T   T
  0.3104644288889986  0.1217168706330014  0.0968315367950012   T   T   T
  0.3104644288889986  0.1217168706330014  0.3468320657700019   T   T   T
  0.3104644288889986  0.1217168706330014  0.5968325947440007   T   T   T
  0.3104644288889986  0.1217168706330014  0.8468331237190014   T   T   T
  0.8104644288889986  0.1217168706330014  0.0968315367950012   T   T   T
  0.8104644288889986  0.1217168706330014  0.3468320657700019   T   T   T
  0.8104644288889986  0.1217168706330014  0.5968325947440007   T   T   T
  0.8104644288889986  0.1217168706330014  0.8468331237190014   T   T   T
  0.3107958254730008  0.1322873031280025  0.2193005526910028   T   T   T
  0.3107958254730008  0.1322873031280025  0.4693010816660035   T   T   T
  0.3107958254730008  0.1322873031280025  0.7193016106409971   T   T   T
  0.3107958254730008  0.1322873031280025  0.9693021396159978   T   T   T
  0.8107958254730008  0.1322873031280025  0.2193005526910028   T   T   T
  0.8107958254730008  0.1322873031280025  0.4693010816660035   T   T   T
  0.8107958254730008  0.1322873031280025  0.7193016106409971   T   T   T
  0.8107958254730008  0.1322873031280025  0.9693021396159978   T   T   T
  0.4943014927849987  0.4296874713909986  0.4575277841169978   T   T   T
  0.5833771001699972  0.4176320116200003  0.4653693508649965   T   T   T
  0.4469460297730024  0.4140362645419984  0.5214743393730004   T   T   T
  0.6170368143690013  0.4683058832619977  0.5157716948249984   T   T   T
  0.3620861316899990  0.4381250033439983  0.5145457329220022   T   T   T
  0.0149062849610004  0.2217870697090021  0.1958043319930027   T   T   T
  0.0149062849610004  0.2217870697090021  0.4458048609680034   T   T   T
  0.0149062849610004  0.2217870697090021  0.6958053899420023   T   T   T
  0.0149062849610004  0.2217870697090021  0.9458059189170029   T   T   T
  0.5149062849610004  0.2217870697090021  0.1958043319930027   T   T   T
  0.5149062849610004  0.2217870697090021  0.4458048609680034   T   T   T
  0.5149062849610004  0.2217870697090021  0.6958053899420023   T   T   T
  0.5149062849610004  0.2217870697090021  0.9458059189170029   T   T   T
  0.1576729893450022  0.2218340704219983  0.1248181805350015   T   T   T
  0.1576729893450022  0.2218340704219983  0.3748187095090003   T   T   T
  0.1576729893450022  0.2218340704219983  0.6248192384840010   T   T   T
  0.1576729893450022  0.2218340704219983  0.8748197674590017   T   T   T
  0.6576729893450022  0.2218340704219983  0.1248181805350015   T   T   T
  0.6576729893450022  0.2218340704219983  0.3748187095090003   T   T   T
  0.6576729893450022  0.2218340704219983  0.6248192384840010   T   T   T
  0.6576729893450022  0.2218340704219983  0.8748197674590017   T   T   T
  0.4316418189550006  0.0178237756040005  0.1947878818929993   T   T   T
  0.4316418189550006  0.0178237756040005  0.4447884108680000   T   T   T
  0.4316418189550006  0.0178237756040005  0.6947889398419989   T   T   T
  0.4316418189550006  0.0178237756040005  0.9447894688169995   T   T   T
  0.9316418189550006  0.0178237756040005  0.1947878818929993   T   T   T
  0.9316418189550006  0.0178237756040005  0.4447884108680000   T   T   T
  0.9316418189550006  0.0178237756040005  0.6947889398419989   T   T   T
  0.9316418189550006  0.0178237756040005  0.9447894688169995   T   T   T
  0.1814926961099985  0.0177979390940024  0.1859640345670002   T   T   T
  0.1814926961099985  0.0177979390940024  0.4359645635420009   T   T   T
  0.1814926961099985  0.0177979390940024  0.6859650925159997   T   T   T
  0.1814926961099985  0.0177979390940024  0.9359656214910004   T   T   T
  0.6814926961099985  0.0177979390940024  0.1859640345670002   T   T   T
  0.6814926961099985  0.0177979390940024  0.4359645635420009   T   T   T
  0.6814926961099985  0.0177979390940024  0.6859650925159997   T   T   T
  0.6814926961099985  0.0177979390940024  0.9359656214910004   T   T   T
  0.2673630529110014  0.2215323413309989  0.1962863415060028   T   T   T
  0.2673630529110014  0.2215323413309989  0.4462868704810035   T   T   T
  0.2673630529110014  0.2215323413309989  0.6962873994559970   T   T   T
  0.2673630529110014  0.2215323413309989  0.9462879284300030   T   T   T
  0.7673630529110014  0.2215323413309989  0.1962863415060028   T   T   T
  0.7673630529110014  0.2215323413309989  0.4462868704810035   T   T   T
  0.7673630529110014  0.2215323413309989  0.6962873994559970   T   T   T
  0.7673630529110014  0.2215323413309989  0.9462879284300030   T   T   T
  0.0508048093220026  0.0185508010440003  0.1795691603199998   T   T   T
  0.0508048093220026  0.0185508010440003  0.4295696892950005   T   T   T
  0.0508048093220026  0.0185508010440003  0.6795702182700012   T   T   T
  0.0508048093220026  0.0185508010440003  0.9295707472450019   T   T   T
  0.5508048093220026  0.0185508010440003  0.1795691603199998   T   T   T
  0.5508048093220026  0.0185508010440003  0.4295696892950005   T   T   T
  0.5508048093220026  0.0185508010440003  0.6795702182700012   T   T   T
  0.5508048093220026  0.0185508010440003  0.9295707472450019   T   T   T
  0.3005372976139995  0.0180596585629971  0.1750143174810006   T   T   T
  0.3005372976139995  0.0180596585629971  0.4250148464560013   T   T   T
  0.3005372976139995  0.0180596585629971  0.6750153754310020   T   T   T
  0.3005372976139995  0.0180596585629971  0.9250159044060027   T   T   T
  0.8005372976139995  0.0180596585629971  0.1750143174810006   T   T   T
  0.8005372976139995  0.0180596585629971  0.4250148464560013   T   T   T
  0.8005372976139995  0.0180596585629971  0.6750153754310020   T   T   T
  0.8005372976139995  0.0180596585629971  0.9250159044060027   T   T   T
  0.3926663373149992  0.2215378682779985  0.1794876646950030   T   T   T
  0.3926663373149992  0.2215378682779985  0.4294881936699966   T   T   T
  0.3926663373149992  0.2215378682779985  0.6794887226449973   T   T   T
  0.3926663373149992  0.2215378682779985  0.9294892516199980   T   T   T
  0.8926663373149992  0.2215378682779985  0.1794876646950030   T   T   T
  0.8926663373149992  0.2215378682779985  0.4294881936699966   T   T   T
  0.8926663373149992  0.2215378682779985  0.6794887226449973   T   T   T
  0.8926663373149992  0.2215378682779985  0.9294892516199980   T   T   T
  0.4831099103270020  0.4820137006780030  0.4427796749460029   T   T   T
  0.4738697317559968  0.3975276499930018  0.4157382317509999   T   T   T
  0.6105573498959984  0.4272092004040005  0.4156425205770020   T   T   T
  0.4493286853570027  0.3599877329220007  0.5329258314139977   T   T   T
  0.4724456263660031  0.4401811011359982  0.5656959215640001   T   T   T
  0.5925269109360016  0.3455101217690029  0.5366980728390018   T   T   T
  0.6578902950580030  0.3388150248109980  0.4775221632960012   T   T   T
  0.3215773080030004  0.3559972655599992  0.5709068923220002   T   T   T
  0.2505267333749970  0.4136223204530012  0.5451861521040016   T   T   T
  0.6461573527599995  0.5586228481620026  0.5247700369329991   T   T   T
  0.5993875105760011  0.3482623215619967  0.4850369744319991   T   T   T
  0.3078698037099983  0.4002171731830018  0.5485578675620033   T   T   T
  0.3326135275749991  0.1837055900859994  0.0714632530539987   T   T   T
  0.3326135275749991  0.1837055900859994  0.3214637820289994   T   T   T
  0.3326135275749991  0.1837055900859994  0.5714643110040001   T   T   T
  0.3326135275749991  0.1837055900859994  0.8214648399790008   T   T   T
  0.8326135275749991  0.1837055900859994  0.0714632530539987   T   T   T
  0.8326135275749991  0.1837055900859994  0.3214637820289994   T   T   T
  0.8326135275749991  0.1837055900859994  0.5714643110040001   T   T   T
  0.8326135275749991  0.1837055900859994  0.8214648399790008   T   T   T
  0.0834979923140011  0.1932801712369994  0.0713964855239979   T   T   T
  0.0834979923140011  0.1932801712369994  0.3213970144989986   T   T   T
  0.0834979923140011  0.1932801712369994  0.5713975434739993   T   T   T
  0.0834979923140011  0.1932801712369994  0.8213980724490000   T   T   T
  0.5834979923140011  0.1932801712369994  0.0713964855239979   T   T   T
  0.5834979923140011  0.1932801712369994  0.3213970144989986   T   T   T
  0.5834979923140011  0.1932801712369994  0.5713975434739993   T   T   T
  0.5834979923140011  0.1932801712369994  0.8213980724490000   T   T   T
  0.2023484910190021  0.0414396651730016  0.0713653151079967   T   T   T
  0.2023484910190021  0.0414396651730016  0.3213658440829974   T   T   T
  0.2023484910190021  0.0414396651730016  0.5713663730579981   T   T   T
  0.2023484910190021  0.0414396651730016  0.8213669020329988   T   T   T
  0.7023484910190021  0.0414396651730016  0.0713653151079967   T   T   T
  0.7023484910190021  0.0414396651730016  0.3213658440829974   T   T   T
  0.7023484910190021  0.0414396651730016  0.5713663730579981   T   T   T
  0.7023484910190021  0.0414396651730016  0.8213669020329988   T   T   T
  0.4641852976760035  0.0503364855569970  0.0714194848110026   T   T   T
  0.4641852976760035  0.0503364855569970  0.3214200137860033   T   T   T
  0.4641852976760035  0.0503364855569970  0.5714205427600021   T   T   T
  0.4641852976760035  0.0503364855569970  0.8214210717350028   T   T   T
  0.9641852976760035  0.0503364855569970  0.0714194848110026   T   T   T
  0.9641852976760035  0.0503364855569970  0.3214200137860033   T   T   T
  0.9641852976760035  0.0503364855569970  0.5714205427600021   T   T   T
  0.9641852976760035  0.0503364855569970  0.8214210717350028   T   T   T
  0.0705974927589992  0.2041427594799998  0.2040275980110025   T   T   T
  0.0705974927589992  0.2041427594799998  0.4540281269860031   T   T   T
  0.0705974927589992  0.2041427594799998  0.7040286559609967   T   T   T
  0.0705974927589992  0.2041427594799998  0.9540291849359974   T   T   T
  0.5705974927589992  0.2041427594799998  0.2040275980110025   T   T   T
  0.5705974927589992  0.2041427594799998  0.4540281269860031   T   T   T
  0.5705974927589992  0.2041427594799998  0.7040286559609967   T   T   T
  0.5705974927589992  0.2041427594799998  0.9540291849359974   T   T   T
  0.2016026510939994  0.2039585353169997  0.1529863902369968   T   T   T
  0.2016026510939994  0.2039585353169997  0.4029869192119975   T   T   T
  0.2016026510939994  0.2039585353169997  0.6529874481869982   T   T   T
  0.2016026510939994  0.2039585353169997  0.9029879771619989   T   T   T
  0.7016026510939994  0.2039585353169997  0.1529863902369968   T   T   T
  0.7016026510939994  0.2039585353169997  0.4029869192119975   T   T   T
  0.7016026510939994  0.2039585353169997  0.6529874481869982   T   T   T
  0.7016026510939994  0.2039585353169997  0.9029879771619989   T   T   T
  0.4879364051010029  0.0305748586370029  0.2132059596020000   T   T   T
  0.4879364051010029  0.0305748586370029  0.4632064885770006   T   T   T
  0.4879364051010029  0.0305748586370029  0.7132070175520013   T   T   T
  0.4879364051010029  0.0305748586370029  0.9632075465270020   T   T   T
  0.9879364051010029  0.0305748586370029  0.2132059596020000   T   T   T
  0.9879364051010029  0.0305748586370029  0.4632064885770006   T   T   T
  0.9879364051010029  0.0305748586370029  0.7132070175520013   T   T   T
  0.9879364051010029  0.0305748586370029  0.9632075465270020   T   T   T
  0.2372966027149985  0.0306390585200020  0.2040899621149990   T   T   T
  0.2372966027149985  0.0306390585200020  0.4540904910889978   T   T   T
  0.2372966027149985  0.0306390585200020  0.7040910200639985   T   T   T
  0.2372966027149985  0.0306390585200020  0.9540915490389992   T   T   T
  0.7372966027149985  0.0306390585200020  0.2040899621149990   T   T   T
  0.7372966027149985  0.0306390585200020  0.4540904910889978   T   T   T
  0.7372966027149985  0.0306390585200020  0.7040910200639985   T   T   T
  0.7372966027149985  0.0306390585200020  0.9540915490389992   T   T   T
  0.3205259977080033  0.2041581242409976  0.2141599240050027   T   T   T
  0.3205259977080033  0.2041581242409976  0.4641604529790015   T   T   T
  0.3205259977080033  0.2041581242409976  0.7141609819540022   T   T   T
  0.3205259977080033  0.2041581242409976  0.9641615109290029   T   T   T
  0.8205259977080033  0.2041581242409976  0.2141599240050027   T   T   T
  0.8205259977080033  0.2041581242409976  0.4641604529790015   T   T   T
  0.8205259977080033  0.2041581242409976  0.7141609819540022   T   T   T
  0.8205259977080033  0.2041581242409976  0.9641615109290029   T   T   T
  0.1071108454350025  0.0312486366480016  0.1581571193149998   T   T   T
  0.1071108454350025  0.0312486366480016  0.4081576482900005   T   T   T
  0.1071108454350025  0.0312486366480016  0.6581581772650011   T   T   T
  0.1071108454350025  0.0312486366480016  0.9081587062390000   T   T   T
  0.6071108454350025  0.0312486366480016  0.1581571193149998   T   T   T
  0.6071108454350025  0.0312486366480016  0.4081576482900005   T   T   T
  0.6071108454350025  0.0312486366480016  0.6581581772650011   T   T   T
  0.6071108454350025  0.0312486366480016  0.9081587062390000   T   T   T
  0.3579462010529966  0.0305954111739979  0.1581672894630017   T   T   T
  0.3579462010529966  0.0305954111739979  0.4081678184370006   T   T   T
  0.3579462010529966  0.0305954111739979  0.6581683474120013   T   T   T
  0.3579462010529966  0.0305954111739979  0.9081688763870019   T   T   T
  0.8579462010529966  0.0305954111739979  0.1581672894630017   T   T   T
  0.8579462010529966  0.0305954111739979  0.4081678184370006   T   T   T
  0.8579462010529966  0.0305954111739979  0.6581683474120013   T   T   T
  0.8579462010529966  0.0305954111739979  0.9081688763870019   T   T   T
  0.4406298002569997  0.2046977642499996  0.1581316383660010   T   T   T
  0.4406298002569997  0.2046977642499996  0.4081321673410017   T   T   T
  0.4406298002569997  0.2046977642499996  0.6581326963150005   T   T   T
  0.4406298002569997  0.2046977642499996  0.9081332252900012   T   T   T
  0.9406298002569997  0.2046977642499996  0.1581316383660010   T   T   T
  0.9406298002569997  0.2046977642499996  0.4081321673410017   T   T   T
  0.9406298002569997  0.2046977642499996  0.6581326963150005   T   T   T
  0.9406298002569997  0.2046977642499996  0.9081332252900012   T   T   T
  0.6276767144929991  0.5297863801069980  0.4875865352540032   T   T   T
  0.6310944006050008  0.4563609061080030  0.5752957466930013   T   T   T
  0.3438306991230036  0.4887885630360032  0.4827290413119982   T   T   T
 
 


