C H N O                                 
   1.00000000000000     
    17.0814999999999984    0.0000000000000000    0.0000000000000000
     0.0000000000000000   20.0000000000000000    0.0000000000000000
     0.0000000000000000    0.0000000000000000   19.7743000000000002
   C    H    N    O 
     5     9     1     4
Selective dynamics
Direct
  0.4817943355769998  0.4117239903989969  0.5356433813729993   T   T   T
  0.3953380295610032  0.4251809521609999  0.5171671898390002   T   T   T
  0.5367222149600011  0.4204696216510015  0.4751760815260013   T   T   T
  0.3802060498200035  0.4968881137380023  0.4938479896710035   T   T   T
  0.6162242662460002  0.3892612485419988  0.4868448406479970   T   T   T
  0.4866903445830033  0.3597959245280009  0.5540956738459997   T   T   T
  0.4993065069459988  0.4445021371089979  0.5778740514840024   T   T   T
  0.3609357479050033  0.4206646982550026  0.5649693766830026   T   T   T
  0.5098062678249988  0.3956248491019991  0.4307942591480014   T   T   T
  0.5444849518540025  0.4735377420299969  0.4613430356539965   T   T   T
  0.3228599687620033  0.4017492639929969  0.4387556454430026   T   T   T
  0.3499970362049964  0.3359254039829978  0.4841686905280014   T   T   T
  0.4027746651769988  0.5864683052559982  0.5140337189329998   T   T   T
  0.7192220634469990  0.3895240858009998  0.4538184221660018   T   T   T
  0.3690949599070024  0.3799769566560016  0.4635646774779971   T   T   T
  0.4189964887729971  0.5427321687529982  0.5322416979330029   T   T   T
  0.6709050658770011  0.4143140894029997  0.4431264444909999   T   T   T
  0.3363826857859991  0.5126428853180016  0.4476139112160027   T   T   T
  0.6319580366680029  0.3461736964840014  0.5285750854320028   T   T   T
 
  0.00000000E+00  0.00000000E+00  0.00000000E+00
  0.00000000E+00  0.00000000E+00  0.00000000E+00
  0.00000000E+00  0.00000000E+00  0.00000000E+00
  0.00000000E+00  0.00000000E+00  0.00000000E+00
  0.00000000E+00  0.00000000E+00  0.00000000E+00
  0.00000000E+00  0.00000000E+00  0.00000000E+00
  0.00000000E+00  0.00000000E+00  0.00000000E+00
  0.00000000E+00  0.00000000E+00  0.00000000E+00
  0.00000000E+00  0.00000000E+00  0.00000000E+00
  0.00000000E+00  0.00000000E+00  0.00000000E+00
  0.00000000E+00  0.00000000E+00  0.00000000E+00
  0.00000000E+00  0.00000000E+00  0.00000000E+00
  0.00000000E+00  0.00000000E+00  0.00000000E+00
  0.00000000E+00  0.00000000E+00  0.00000000E+00
  0.00000000E+00  0.00000000E+00  0.00000000E+00
  0.00000000E+00  0.00000000E+00  0.00000000E+00
  0.00000000E+00  0.00000000E+00  0.00000000E+00
  0.00000000E+00  0.00000000E+00  0.00000000E+00
  0.00000000E+00  0.00000000E+00  0.00000000E+00
