C H N O                                 
   1.00000000000000     
    20.0000000000000000    0.0000000000000000    0.0000000000000000
     0.0000000000000000   21.3509999999999991    0.0000000000000000
     0.0000000000000000    0.0000000000000000   20.0000000000000000
   C    H    N    O 
   165     9     1     4
Selective dynamics
Direct
  0.0405270869280869  0.0179046498672477  0.0298398272488001   T   T   T
  0.0404412961283001  0.0179409734336815  0.1531165421695988   T   T   T
  0.0404451696470218  0.0179161324630996  0.2756895586553512   T   T   T
  0.0404472584828710  0.0179152030613920  0.3981622899636648   T   T   T
  0.0404539580574763  0.0179359145713605  0.5206757783313165   T   T   T
  0.0405953217986692  0.0179499997997112  0.6439482253066373   T   T   T
  0.0404677307081087  0.0178587998270530  0.7753084390296507   T   T   T
  0.0404627417101509  0.0179388721805793  0.8984108837339377   T   T   T
  0.0405097601166489  0.0839788006627344  0.0298189105313114   T   T   T
  0.0404317825362597  0.0839434556737189  0.1530924742949580   T   T   T
  0.0404472043992072  0.0838830319305757  0.2756852514141741   T   T   T
  0.0404484408159220  0.0838848985788019  0.3981559246905775   T   T   T
  0.0404609834803793  0.0838647268516866  0.5206707832622826   T   T   T
  0.0406318630845703  0.0839606052965962  0.6439039324538314   T   T   T
  0.0404663213644980  0.0838618193267706  0.7752183477665682   T   T   T
  0.0404681958714406  0.0839545328652846  0.8984159005009289   T   T   T
  0.0404272512681914  0.1195903119589374  0.0914641148956790   T   T   T
  0.0404140977795819  0.1189813134496731  0.2144270238701864   T   T   T
  0.0404148342362731  0.1189789613011243  0.3368649118629179   T   T   T
  0.0404246079691291  0.1189789114221966  0.4593618747638359   T   T   T
  0.0405620361170804  0.1190140146441294  0.5820705207465622   T   T   T
  0.0403048015657035  0.1189481521636750  0.7133937691810672   T   T   T
  0.0403998675711961  0.1189722974915313  0.8368497315406316   T   T   T
  0.0406507399591334  0.1196042743096442  0.9604338173238460   T   T   T
  0.0404490372181101  0.1852306620192579  0.0912488039188872   T   T   T
  0.0404288435690034  0.1845415189833659  0.2145390958302684   T   T   T
  0.0404321462117423  0.1845580905690269  0.3369007212935529   T   T   T
  0.0404489608782299  0.1845526383036145  0.4594485554650873   T   T   T
  0.0404655664410427  0.1846434384874343  0.5821681558365199   T   T   T
  0.0407108752822083  0.1845110449045890  0.7131525872079933   T   T   T
  0.0404490740942691  0.1845166774996727  0.8370396416430452   T   T   T
  0.0407105810293302  0.1852003792029819  0.9608966576661047   T   T   T
  0.0409932642379047  0.2208542814502081  0.0298041022655937   T   T   T
  0.0404502685030934  0.2137642984862609  0.1531868120147024   T   T   T
  0.0403841456547980  0.2142770841741140  0.2756745156406311   T   T   T
  0.0404351838832184  0.2137898977905763  0.3981786033052117   T   T   T
  0.0404639108864870  0.2142277731683322  0.5207115485520148   T   T   T
  0.0407313244633229  0.2135913341732376  0.6444747211561790   T   T   T
  0.0404419787920531  0.2137147365565895  0.7753346438765405   T   T   T
  0.0404791720546598  0.2137586276828358  0.8984684628530033   T   T   T
  0.0406303969290676  0.2866118263070376  0.0295182236001992   T   T   T
  0.0404291316265741  0.2792797009553851  0.1530945412416216   T   T   T
  0.0405083487697340  0.2793750008058069  0.2756238066919678   T   T   T
  0.0404813366593899  0.2793140970442423  0.3981070954472798   T   T   T
  0.0405572356747186  0.2793369403992756  0.5206836055643009   T   T   T
  0.0407150299893502  0.2807177714938618  0.6464441242426417   T   T   T
  0.0404900459648516  0.2792948084884870  0.7754715808640427   T   T   T
  0.0405956336435551  0.2792772181921066  0.8983648818398251   T   T   T
  0.0403820462290909  0.3149936848397985  0.0921021820596835   T   T   T
  0.0404497258448870  0.3143923760254665  0.2144048518968447   T   T   T
  0.0404574527616646  0.3143792494017461  0.3369243748785564   T   T   T
  0.0404564647047181  0.3143851558997781  0.4594009175325411   T   T   T
  0.0404635024125426  0.3144174718823578  0.5822858204167645   T   T   T
  0.0404665742061638  0.3143953216220652  0.7136574971892315   T   T   T
  0.0404546268134638  0.3144012253562281  0.8369648050955831   T   T   T
  0.0404739916272234  0.3148237387446429  0.9600042437557121   T   T   T
  0.0403320609420064  0.3809752430044426  0.0918565390916513   T   T   T
  0.0404493287130805  0.3803706115299619  0.2144622466835102   T   T   T
  0.0404488810229395  0.3803460273744861  0.3369209881584680   T   T   T
  0.0404476993122529  0.3803344933895190  0.4593968769453980   T   T   T
  0.0404482075595638  0.3804380509335274  0.5821434889707504   T   T   T
  0.0405353015595651  0.3803910462104270  0.7135104722992907   T   T   T
  0.0404513976353016  0.3803501335634323  0.8369481805557299   T   T   T
  0.0406306731646211  0.3806396106916736  0.9600616798566293   T   T   T
  0.0405096970513981  0.4161230349910880  0.0298316766654807   T   T   T
  0.0404422054244549  0.4161761692865156  0.1531932340052791   T   T   T
  0.0404523729441948  0.4161053352475008  0.2757013519154725   T   T   T
  0.0404568097452156  0.4161129557956542  0.3981658243971680   T   T   T
  0.0404637252185722  0.4161235531387177  0.5206864919275702   T   T   T
  0.0406818238597353  0.4161409721217240  0.6446268058926350   T   T   T
  0.0404495633169404  0.4161232126473919  0.7753771919299766   T   T   T
  0.0404703663315544  0.4161461306752798  0.8983864470971241   T   T   T
  0.0405358229571249  0.4822163598181248  0.0298245096372511   T   T   T
  0.0404458772025578  0.4821889352558983  0.1531604862789067   T   T   T
  0.0404366116046191  0.4821799019901292  0.2757068108171481   T   T   T
  0.0404388631131241  0.4821552228497410  0.3981915014960293   T   T   T
  0.0404840662982835  0.4821496950565987  0.5210888640857476   T   T   T
  0.0405917009516799  0.4821318115814819  0.6519463600335769   T   T   T
  0.0404549429946215  0.4821560357170327  0.7756219096358450   T   T   T
  0.0404753848114439  0.4821889525337610  0.8984094671098788   T   T   T
  0.0404521025208169  0.5178995559614137  0.0916563560598362   T   T   T
  0.0404467111068882  0.5179272100846859  0.2144713447869222   T   T   T
  0.0404276197363274  0.5179125108906959  0.3369281205924892   T   T   T
  0.0404477966270846  0.5179439476508350  0.4595263902825337   T   T   T
  0.0406208758350033  0.5166666666659978  0.5855325419810029   F   F   F
  0.0404502112975607  0.5178839280399146  0.7141926466091206   T   T   T
  0.0404544487707028  0.5179561561146926  0.8369775222759586   T   T   T
  0.0406165304608663  0.5178868075689422  0.9602555209613186   T   T   T
  0.0404709184578209  0.5839293832365371  0.0916272712543034   T   T   T
  0.0404473130174736  0.5838805853493980  0.2144488801703019   T   T   T
  0.0404444710018836  0.5838773854331194  0.3369313293079301   T   T   T
  0.0404495624507675  0.5838723897336706  0.4594411500616857   T   T   T
  0.0404646322937765  0.5836446751407038  0.5824649896737668   T   T   T
  0.0404759988775822  0.5838502544928659  0.7137776348954006   T   T   T
  0.0404626540450934  0.5839418166810617  0.8369518464505887   T   T   T
  0.0406294793238260  0.5839432938008216  0.9603484827673654   T   T   T
  0.0406810648974840  0.6191701550080069  0.0298272342219619   T   T   T
  0.0403813717931598  0.6190306001871306  0.1530949615619051   T   T   T
  0.0404248954140201  0.6189826200389703  0.2756471705810171   T   T   T
  0.0404188509308412  0.6190012215324501  0.3981044046582269   T   T   T
  0.0405435548875346  0.6189281597855398  0.5207581064616491   T   T   T
  0.0407218981814026  0.6167642292294175  0.6480750565155304   T   T   T
  0.0404199666508163  0.6195177259545090  0.7753447541386222   T   T   T
  0.0405266623064762  0.6194611593265549  0.8985467617810059   T   T   T
  0.0404081047534461  0.6850252425040324  0.0299092644795920   T   T   T
  0.0404429883580448  0.6847146848584487  0.1529798809907845   T   T   T
  0.0404381502369802  0.6845981081582408  0.2756717542646854   T   T   T
  0.0404442247881747  0.6845393069366565  0.3981650591616557   T   T   T
  0.0404478070582073  0.6844860605609142  0.5207599792059199   T   T   T
  0.0406787859502273  0.6825175875147522  0.6465112003873941   T   T   T
  0.0404564383260606  0.6848834793576799  0.7749962834638993   T   T   T
  0.0404177569604087  0.6849709680558007  0.8988539686841150   T   T   T
  0.0406064276998137  0.7148488857698254  0.0917816156091078   T   T   T
  0.0404103798782103  0.7143470909169878  0.2144278867556437   T   T   T
  0.0403675706054614  0.7142190512242976  0.3369254046507208   T   T   T
  0.0404432600785185  0.7138054800276024  0.4594137477275737   T   T   T
  0.0404791176168047  0.7134744879817916  0.5824092738807067   T   T   T
  0.0407190111141205  0.7157767121482124  0.7109108001199189   T   T   T
  0.0404435303752209  0.7138353872324288  0.8369899801559981   T   T   T
  0.0400988543314469  0.7175677533631273  0.9637196272186301   T   T   T
  0.0405702867200546  0.7852755405792209  0.0917904173284541   T   T   T
  0.0404987812312640  0.7793429323176042  0.2144176816483494   T   T   T
  0.0405005320384149  0.7793550200100654  0.3368759454485541   T   T   T
  0.0404944000348024  0.7793115815339249  0.4593457488388282   T   T   T
  0.0405889139345703  0.7791821914076138  0.5820708240165118   T   T   T
  0.0407165663464113  0.7815264782006821  0.7093808540324318   T   T   T
  0.0404916223677816  0.7793086528826976  0.8368930967873496   T   T   T
  0.0407001681624379  0.7835306939791238  0.9643808289718407   T   T   T
  0.0404406671783804  0.8151712742284190  0.0299583802168044   T   T   T
  0.0404655296615957  0.8148808466654813  0.1534314081474122   T   T   T
  0.0404481206438518  0.8143780705213288  0.2756645538671734   T   T   T
  0.0404507219064030  0.8143839653027882  0.3981458504121917   T   T   T
  0.0404596128965551  0.8143625801563417  0.5206534536486487   T   T   T
  0.0404744484233319  0.8144179666352969  0.6436056068887126   T   T   T
  0.0404726146164052  0.8145177282945255  0.7750534654980115   T   T   T
  0.0404087208088981  0.8145462087098849  0.8985566435087406   T   T   T
  0.0406866506170687  0.8810376665379351  0.0298931858119218   T   T   T
  0.0403947546617829  0.8809102962558200  0.1532568967281094   T   T   T
  0.0404458984245863  0.8803459609314075  0.2756955152140748   T   T   T
  0.0404444467295946  0.8803405859465983  0.3981645033706300   T   T   T
  0.0404465088004358  0.8803361594682002  0.5206349445562353   T   T   T
  0.0405086255356437  0.8804986673307411  0.6433710631165468   T   T   T
  0.0405017987402019  0.8804347027328419  0.7747974623817200   T   T   T
  0.0404826596925005  0.8803663437472125  0.8983112162319955   T   T   T
  0.0404605113696590  0.9161537809094469  0.0916420859251659   T   T   T
  0.0404449883885931  0.9161590792690646  0.2144784341315997   T   T   T
  0.0404492913727807  0.9161060240605607  0.3369238195156328   T   T   T
  0.0404527984695235  0.9161073742709220  0.4593915183893458   T   T   T
  0.0404573851284979  0.9161253645715632  0.5819105743201689   T   T   T
  0.0406869264133221  0.9161795329454563  0.7058628766667994   T   T   T
  0.0404487019090141  0.9161385318071353  0.8366492635203286   T   T   T
  0.0406450073072904  0.9161188766260722  0.9603526986066200   T   T   T
  0.0404490457214735  0.9822017464680570  0.0916619731075272   T   T   T
  0.0404468177384132  0.9821844320685784  0.2144839501791864   T   T   T
  0.0404407968668110  0.9821534811296360  0.3369264436493680   T   T   T
  0.0404488944055998  0.9821611838403328  0.4593990854842644   T   T   T
  0.0404671064710129  0.9821739070861852  0.5820855400652647   T   T   T
  0.0406644003267402  0.9821354789778951  0.7129489573842847   T   T   T
  0.0404495444882755  0.9821727917944187  0.8369036611600862   T   T   T
  0.0406272219771964  0.9822185036381086  0.9602383306695756   T   T   T
  0.2758096077891352  0.5282444919165528  0.4902667059996872   T   T   T
  0.2555438967262731  0.5463579979886930  0.4187184231467000   T   T   T
  0.2203755251856165  0.5021466067196982  0.5305330469973839   T   T   T
  0.2353774209197042  0.4900858267587722  0.3777965301548676   T   T   T
  0.2345091116926383  0.5076236774897325  0.6023645535584734   T   T   T
  0.2837427018172960  0.5724099715782103  0.5177146689472991   T   T   T
  0.3227904281607721  0.5013843634531980  0.4932599756433547   T   T   T
  0.3031492843278940  0.5641041877055599  0.3975018752455171   T   T   T
  0.1750120884819282  0.5278327071152589  0.5212691707517578   T   T   T
  0.2061947571787641  0.4549632406617832  0.5143013202878137   T   T   T
  0.1759617772660462  0.5891836310363914  0.3753751958834002   T   T   T
  0.2219611808354500  0.6374490711817558  0.4174774208304513   T   T   T
  0.2574458508883453  0.4023078804883227  0.3601446821120291   T   T   T
  0.2013808753403907  0.4702359991775467  0.6811534051863291   T   T   T
  0.2037972722105508  0.5931642483100887  0.4181042855439614   T   T   T
  0.2754340760401846  0.4358009268922132  0.3878598298928324   T   T   T
  0.1938897657727523  0.4634966637095346  0.6328613857052332   T   T   T
  0.1930769709457891  0.4868831722824893  0.3360281127597062   T   T   T
  0.2755054463226116  0.5375515617271773  0.6326841420082800   T   T   T
 
  


