C H N O                                 
   1.00000000000000     
    17.0814999999999984    0.0000000000000000    0.0000000000000000
     0.0000000000000000   21.3509999999999991    0.0000000000000000
     0.0000000000000000    0.0000000000000000   19.7240000000000002
   C    H    N    O 
   133    41     1    68
Selective dynamics
Direct
  0.0361367058670430  0.4630409517458128  0.0620788621745385   T   T   T
  0.0361867939811510  0.4630411609824633  0.5620753142759984   T   T   T
  0.5361269872632242  0.4630366442702413  0.0620815459885595   T   T   T
  0.5359575604638975  0.4630424474676038  0.5620933705156680   T   T   T
  0.0458620080160740  0.4632808202522840  0.3127644034997257   T   T   T
  0.0458634419510974  0.4632801428622721  0.8127647265081922   T   T   T
  0.5458625184277692  0.4632813781348974  0.3127623079989569   T   T   T
  0.5458639899366262  0.4632807567931667  0.8127624160428288   T   T   T
  0.0358742187710224  0.4807453702416833  0.1884189999675902   T   T   T
  0.0358744422840266  0.4807435271917040  0.6884190517065923   T   T   T
  0.5358733336703104  0.4807459106665247  0.1884190959485682   T   T   T
  0.5358714074839966  0.4807438776361760  0.6884194471206442   T   T   T
  0.0367401622981860  0.4809061490203546  0.4382966104992974   T   T   T
  0.0367391251503863  0.4809066610732263  0.9382973682598971   T   T   T
  0.5367329260445248  0.4809141774019678  0.4383027414249166   T   T   T
  0.5367401733268794  0.4809063565224506  0.9382971280531096   T   T   T
  0.2860861028524847  0.4812271966739605  0.0632823697153262   T   T   T
  0.2860853274369013  0.4812263195747669  0.5632820957745507   T   T   T
  0.7860859498938028  0.4812267112974489  0.0632826827531515   T   T   T
  0.7860839272456522  0.4812268495019919  0.5632828714562621   T   T   T
  0.2857169888514646  0.4723911109378904  0.3131864713928688   T   T   T
  0.2857140837546807  0.4723920304248851  0.8131858080089439   T   T   T
  0.7857222617385223  0.4723879081973448  0.3131868692250411   T   T   T
  0.7857218192408116  0.4723866679589349  0.8131867196205259   T   T   T
  0.2862060083825484  0.4717643458770750  0.1879291520085637   T   T   T
  0.2862086508747494  0.4717626012509068  0.6879307143414789   T   T   T
  0.7862082471048381  0.4717604614515595  0.1879275561869576   T   T   T
  0.7862040939643576  0.4717634064686481  0.6879285063256736   T   T   T
  0.2957723108399514  0.4719884119324450  0.4374336237695859   T   T   T
  0.2957724469867846  0.4719888020376786  0.9374334370308146   T   T   T
  0.7957705930801072  0.4719877787295865  0.4374320106485781   T   T   T
  0.7957717094699680  0.4719890588347276  0.9374338416559285   T   T   T
  0.1210766096955573  0.4699221305322285  0.0627364199132372   T   T   T
  0.1216356142012267  0.4696966382122139  0.5626779716781086   T   T   T
  0.6210211115997432  0.4699399079802648  0.0627444577561624   T   T   T
  0.6194469941988563  0.4707122074489973  0.5628788587493320   T   T   T
  0.1303293581427835  0.4719798314086154  0.3133063704247567   T   T   T
  0.1303294166987834  0.4719785738907346  0.8133064200586182   T   T   T
  0.6303301032649927  0.4719829003712154  0.3133050256307257   T   T   T
  0.6303299173420445  0.4719823255495543  0.8133045496257901   T   T   T
  0.1194262672697587  0.4722237059253354  0.1869327339900587   T   T   T
  0.1194269755790703  0.4722235020863396  0.6869318359707105   T   T   T
  0.6194243636918743  0.4722219444521823  0.1869345839225279   T   T   T
  0.6194247281556907  0.4722249413101259  0.6869403996464881   T   T   T
  0.1288089641944821  0.4721131994780212  0.4371060043377287   T   T   T
  0.1288134949625975  0.4721137344562361  0.9371053596549060   T   T   T
  0.6288111642240973  0.4721174176575624  0.4371033088990903   T   T   T
  0.6288125647567434  0.4721172429210169  0.9371057244011503   T   T   T
  0.3699509289853872  0.4717459289003737  0.0619442950042083   T   T   T
  0.3699512034331351  0.4717429246764065  0.5619430817411135   T   T   T
  0.8699531031605665  0.4717419609231365  0.0619448738708576   T   T   T
  0.8699542971345152  0.4717515307778262  0.5619414106013763   T   T   T
  0.3696964514545325  0.4632332427223778  0.3118357428206716   T   T   T
  0.3696912171112927  0.4632323245855621  0.8118357356402989   T   T   T
  0.8697026168483482  0.4632326674733843  0.3118354152212865   T   T   T
  0.8697031058971625  0.4632331599104325  0.8118351175072525   T   T   T
  0.3703013198145357  0.4714826988593668  0.1875542913110950   T   T   T
  0.3702976977267386  0.4714797627405074  0.6875548411478425   T   T   T
  0.8703020626396296  0.4714825614324065  0.1875548558101854   T   T   T
  0.8703043132304538  0.4714863082521570  0.6875537189033677   T   T   T
  0.3805579532306470  0.4728316959100651  0.4380837165388956   T   T   T
  0.3805602382286595  0.4728319313565038  0.9380854200813641   T   T   T
  0.8805609396605422  0.4728319588953794  0.4380856991187366   T   T   T
  0.8805609822293616  0.4728317769050955  0.9380849718171056   T   T   T
  0.1656845618354256  0.4914467179941633  0.1250235022249593   T   T   T
  0.1657230872694254  0.4914546529019255  0.6250468671752920   T   T   T
  0.6656792696094097  0.4914369727950670  0.1250226434797077   T   T   T
  0.6655820537967159  0.4914393882770664  0.6249929777934293   T   T   T
  0.1670052422087440  0.4994890784491380  0.3745660724756971   T   T   T
  0.1670051529735427  0.4994881327375053  0.8745652728149953   T   T   T
  0.6670012330934596  0.4994839806624810  0.3745600305848649   T   T   T
  0.6670013709937853  0.4994856580527466  0.8745649754411179   T   T   T
  0.1666810700048783  0.4726532399640472  0.2493367670604049   T   T   T
  0.1666810308209228  0.4726517929333333  0.7493371951169313   T   T   T
  0.6666812123273265  0.4726491143680199  0.2493357721530814   T   T   T
  0.6666818125138487  0.4726511909157209  0.7493353549717329   T   T   T
  0.1671793489321809  0.4726853613053202  0.0005999562038904   T   T   T
  0.1672082392746781  0.4726800538311942  0.5005903580132843   T   T   T
  0.6671764645557881  0.4726857425002574  0.0006014413435578   T   T   T
  0.6670870168836383  0.4726924458822643  0.5006393238404454   T   T   T
  0.4161269298412213  0.4717687525375420  0.1244821018778481   T   T   T
  0.4161170527332525  0.4717652361889342  0.6244887629184189   T   T   T
  0.9161261958402778  0.4717669356731068  0.1244832768174623   T   T   T
  0.9161254853133967  0.4717661956598171  0.6244834178712673   T   T   T
  0.4171386809575499  0.4720303800110105  0.3741509315546407   T   T   T
  0.4171367316168235  0.4720320920151189  0.8741501216811042   T   T   T
  0.9171404162252637  0.4720309715618051  0.3741507812843177   T   T   T
  0.9171401849377626  0.4720310338247634  0.8741510393384401   T   T   T
  0.4154095644722001  0.4900911031031432  0.2503755521830283   T   T   T
  0.4153950622649290  0.4900906136930425  0.7503698312985844   T   T   T
  0.9154052355201904  0.4900939680709724  0.2503763579132568   T   T   T
  0.9154160749710950  0.4900926922436787  0.7503801612837515   T   T   T
  0.4163019144331630  0.4993443896344980  0.0007771304846528   T   T   T
  0.4162977335811389  0.4993404455655859  0.5007741769355588   T   T   T
  0.9163033237238208  0.4993425713122795  0.0007773989193073   T   T   T
  0.9163052884896455  0.4993429634469216  0.5007773871097926   T   T   T
 -0.0006904792718336  0.4906772228742403  0.1243717215398186   T   T   T
  0.9993302048396159  0.4906792378773501  0.6243687449776768   T   T   T
  0.4993135621080828  0.4906785829579750  0.1243703997280194   T   T   T
  0.4992552899570054  0.4906496216079602  0.6243844650775426   T   T   T
  0.0000698572466454  0.4912791549367455  0.3740537674736064   T   T   T
  0.0000702992233891  0.4912789856143504  0.8740534813812192   T   T   T
  0.5000647224578209  0.4912900269592393  0.3740538357508654   T   T   T
  0.5000684187272181  0.4912795189683302  0.8740541186985222   T   T   T
 -0.0000200293200426  0.4722465154108734  0.2493171925466063   T   T   T
 -0.0000190838894686  0.4722468481743419  0.7493181199111246   T   T   T
  0.4999800911408021  0.4722470134683669  0.2493170785562863   T   T   T
  0.4999777787196424  0.4722463643918777  0.7493180548603047   T   T   T
 -0.0002131734556241  0.4811965407596334  0.9992540161865546   T   T   T
 -0.0002036841362084  0.4811969255126829  0.4992582910670368   T   T   T
  0.4997854963797397  0.4811970355636407  0.9992540928352242   T   T   T
  0.4997572483642556  0.4811961822395860  0.4992433407621750   T   T   T
  0.2496706660998398  0.4808948101600266  0.1241945762842244   T   T   T
  0.2496799194331321  0.4808969555051181  0.6241980779548164   T   T   T
  0.7496698733899056  0.4808953584227778  0.1241943822648569   T   T   T
  0.7496511328176476  0.4808892362024633  0.6241840375060850   T   T   T
  0.2504531415057833  0.4808880143302906  0.3743305874804218   T   T   T
  0.2504537102281019  0.4808883037379291  0.8743306806509001   T   T   T
  0.7504510841732395  0.4808903354891026  0.3743299343680396   T   T   T
  0.7504512073945114  0.4808900103300222  0.8743301915016450   T   T   T
  0.2499860928018921  0.4985030769314298  0.2499655503251487   T   T   T
  0.2499824935943888  0.4985058072916861  0.7499695508255152   T   T   T
  0.7500046842889342  0.4984928863927292  0.2499538937358087   T   T   T
  0.7500092278045730  0.4985002584539082  0.7499620975780622   T   T   T
  0.2498422864633090  0.4993871787278822 -0.0005796419205908   T   T   T
  0.2498446224197722  0.4993840529250311  0.4994167291292286   T   T   T
  0.7498421994367315  0.4993863697329586 -0.0005794546192204   T   T   T
  0.7498262244000026  0.4993851958662412  0.4994283638143662   T   T   T
  0.4866645192330026  0.1621985176060008  0.6357390414890034   F   F   F
  0.5718663791625829  0.1759184037117618  0.6151075530511805   T   T   T
  0.4406135609747917  0.1382994205115749  0.5738647100104916   T   T   T
  0.6194704159353956  0.1203940867222909  0.5926494785434826   T   T   T
  0.3561313089632798  0.1384028638209195  0.5828631097589722   T   T   T
  0.3065815398789188  0.5747188582405702  0.4896514386376508   T   T   T
  0.3066170047233931  0.5746915475293445  0.9896683994141590   T   T   T
  0.8066328463568572  0.5746811804804612  0.4896691116951837   T   T   T
  0.8066249041663860  0.5746866241289366  0.9896690923532097   T   T   T
  0.1991195181943110  0.5810141631804646  0.4034362555747638   T   T   T
  0.1991290719134314  0.5810145785843762  0.9034356103659524   T   T   T
  0.6991599258209525  0.5810143343348112  0.4034332888430950   T   T   T
  0.6991649475811144  0.5810151018176720  0.9034333232955212   T   T   T
  0.2113701022954052  0.5757426023398508  0.1536963521052057   T   T   T
  0.2113664413381568  0.5757418681290758  0.6536948738932072   T   T   T
  0.7113688547024369  0.5757431161556908  0.1537017097533316   T   T   T
  0.7113772306885555  0.5757505338671473  0.6536583834984117   T   T   T
  0.4374281164914944  0.5718027024492784  0.2888602990238957   T   T   T
  0.4374273979820323  0.5718062276169582  0.7888607071704695   T   T   T
  0.9374287595576271  0.5718088958589717  0.2888610125683453   T   T   T
  0.9374305467081070  0.5718044585019556  0.7888606413399594   T   T   T
  0.4398422391492487  0.5739255715590024  0.0503641181654311   T   T   T
  0.4398319231216225  0.5739292819983356  0.5503665069905118   T   T   T
  0.9398362592236281  0.5739287098013601  0.0503671799908016   T   T   T
  0.9398238299036443  0.5739331012926620  0.5503737440211409   T   T   T
  0.3188541721588138  0.5711561359727306  0.2481070308994589   T   T   T
  0.3188536938170822  0.5711537927187499  0.7481115979471142   T   T   T
  0.8188933392076722  0.5712205826674891  0.2480865403783196   T   T   T
  0.8188011556271124  0.5713808901115701  0.7483980797935309   T   T   T
  0.0562714355488155  0.5732747535383980  0.3555093822357838   T   T   T
  0.0562692216084955  0.5732829209799923  0.8555090401484250   T   T   T
  0.5562862117533112  0.5732306956817761  0.3555500304464621   T   T   T
  0.5562676382102439  0.5732913498716993  0.8555118708459353   T   T   T
  0.0563437873685447  0.5701260465405696  0.1118743738994189   T   T   T
  0.0560058430740716  0.5708009292184115  0.6134650498533814   T   T   T
  0.5567803490534247  0.5701688356288488  0.1114639765656000   T   T   T
  0.5562029684977952  0.5688275103218053  0.6124889148256438   T   T   T
  0.4603880168201681  0.2091322197052782  0.6490195909746171   T   T   T
  0.4844701921436953  0.1351223595856687  0.6847139732236556   T   T   T
  0.6035474791343879  0.1857049236428061  0.6639110539794661   T   T   T
  0.4537200933503090  0.1665003095075075  0.5321548505943104   T   T   T
  0.4610025574560601  0.0913267601193908  0.5629725771465021   T   T   T
  0.6292930017324553  0.2196736681972082  0.5338182240727198   T   T   T
  0.5737422239082901  0.2669911829162204  0.5804342216542641   T   T   T
  0.6393169763816388  0.0383774744466270  0.6185406620329912   T   T   T
  0.2566388165327519  0.1064538680953229  0.5564875694596998   T   T   T
  0.5828875897191454  0.2228525773500963  0.5631710386707428   T   T   T
  0.2499763570393127  0.5653266943423876  0.4893421228830592   T   T   T
  0.2499708872421134  0.5653255841509232  0.9893449696360762   T   T   T
  0.7499710451782006  0.5653252350758941  0.4893471172517178   T   T   T
  0.7499709257280944  0.5653255992641708  0.9893447653271157   T   T   T
  0.1666049146312824  0.5653457999377033  0.3650221828473640   T   T   T
  0.1666049296430664  0.5653459083031280  0.8650225301899777   T   T   T
  0.6666051025588051  0.5653458374555765  0.3650237272349403   T   T   T
  0.6666053651415080  0.5653458909464014  0.8650229846546569   T   T   T
  0.1665906571203682  0.5643179534884107  0.1247925928736875   T   T   T
  0.1665904841914024  0.5643195848606685  0.6247869989573477   T   T   T
  0.6665872790180003  0.5643130471964961  0.1248294436385879   T   T   T
  0.6665807603490020  0.5643058435454184  0.6249069256261063   T   T   T
  0.4048946559659891  0.5561153781629844  0.2503465860625776   T   T   T
  0.4048953252677990  0.5561153780371224  0.7503457264559877   T   T   T
  0.9048948278281503  0.5561154633342797  0.2503456938618830   T   T   T
  0.9048943432840758  0.5561154559975983  0.7503472767776417   T   T   T
  0.4048252645877738  0.5653177799244602  0.0102325645773902   T   T   T
  0.4048264665254865  0.5653180681459475  0.5102358239291056   T   T   T
  0.9048248472835015  0.5653181765793265  0.0102361430223818   T   T   T
  0.9048247995987203  0.5653185820323724  0.5102391958355474   T   T   T
  0.2617036283615699  0.5652650700599289  0.2496438313771509   T   T   T
  0.2617035121340340  0.5652660945427410  0.7496440802756382   T   T   T
  0.7617086260755673  0.5652659758929389  0.2496452591821415   T   T   T
  0.7617024573808627  0.5652639241083707  0.7496463589908151   T   T   T
  0.0000264470264788  0.5643021589230922  0.3642655831754715   T   T   T
  0.0000262078152168  0.5643023082203076  0.8642650751557572   T   T   T
  0.5000270422236651  0.5643012316993541  0.3642678840738591   T   T   T
  0.5000263975002364  0.5643022784468323  0.8642644398037582   T   T   T
  0.0000716141645954  0.5561838082445453  0.1143139464925162   T   T   T
  0.0000608119285448  0.5561872874840332  0.6143365069122454   T   T   T
  0.5000901326249243  0.5561887209497379  0.1143106619676927   T   T   T
  0.5000549224862180  0.5561701185850941  0.6143211286129432   T   T   T
  0.3448457035348272  0.4160628974105470  0.4383269300974649   T   T   T
  0.3448459513144065  0.4160627004572311  0.9383250515465619   T   T   T
  0.8448447586262881  0.4160629112934349  0.4383276224317457   T   T   T
  0.8448451108580303  0.4160628925694602  0.9383262220771909   T   T   T
  0.3332103688877687  0.4119612703212739  0.1883829446495190   T   T   T
  0.3332183566088473  0.4119595600304512  0.6883748936559609   T   T   T
  0.8332137480465571  0.4119619074976787  0.1883765842144621   T   T   T
  0.8332106278753361  0.4119601069727219  0.6883787781017875   T   T   T
  0.1665741905420755  0.4161152197041113  0.4682415649106795   T   T   T
  0.1665736670515265  0.4161159633320333  0.9682455459681329   T   T   T
  0.6665712679009812  0.4161177009314374  0.4682587571551682   T   T   T
  0.6665737456784167  0.4161158280373467  0.9682457675271716   T   T   T
  0.0952014493950628  0.4118796168314758  0.3237830713901632   T   T   T
  0.0951932355303262  0.4118838300907104  0.8237865657286629   T   T   T
  0.5951936056631386  0.4118867668874217  0.3237858300326761   T   T   T
  0.5952019849563664  0.4118790402809600  0.8237829829825539   T   T   T
  0.0832771083607290  0.4078426747613752  0.0629425861352363   T   T   T
  0.0832798732908975  0.4078434211702850  0.5629422539223000   T   T   T
  0.5832768724968614  0.4078424449564669  0.0629424988286575   T   T   T
  0.5832686896154246  0.4078341419274623  0.5629462937127270   T   T   T
  0.4047686394522300  0.4120099095542905  0.0928738511273182   T   T   T
  0.4047653184547288  0.4120113190210714  0.5928744951557654   T   T   T
  0.9047630687524154  0.4120117124158389  0.0928988505588164   T   T   T
  0.9047614060770522  0.4120086700974977  0.5928804149750601   T   T   T
  0.4048527682057679  0.4118616647558601  0.3429116984103317   T   T   T
  0.4048469572015558  0.4118642794096101  0.8429048034314449   T   T   T
  0.9048479777872853  0.4118661226705681  0.3428891648310393   T   T   T
  0.9048485167912774  0.4118660614174956  0.8428883275630021   T   T   T
  0.1430737326506829  0.4160882491258349  0.2182955367797459   T   T   T
  0.1430734278011617  0.4160889085110916  0.7182954871164399   T   T   T
  0.6430735403594240  0.4160880743791088  0.2182957312877007   T   T   T
  0.6430706377377647  0.4160873653155567  0.7182987012863347   T   T   T
  0.6072047162535377  0.0735084060856270  0.6351308682766483   T   T   T
  0.3096648408168982  0.1013415571920452  0.5414404500968245   T   T   T
  0.6663979011974632  0.1198658859617519  0.5423007100239794   T   T   T
  0.3214188827283991  0.1671677698760980  0.6253450362244461   T   T   T
 
  


