C H N O                                 
   1.00000000000000     
    17.0814999999999984    0.0000000000000000    0.0000000000000000
     0.0000000000000000   20.0000000000000000    0.0000000000000000
     0.0000000000000000    0.0000000000000000   19.7743000000000002
   C    H    N    O 
   133    73     1   100
Selective dynamics
Direct
  0.1057876293911212  0.1324531176384158  0.0316537468810804   T   T   T
  0.1065875973974278  0.1320152050621540  0.2855492199216816   T   T   T
  0.1057647978068754  0.1324533031094774  0.5316304601904245   T   T   T
  0.1065868965084265  0.1320115427589383  0.7855482844187769   T   T   T
  0.6057875291579770  0.1324530643808167  0.0316561695316227   T   T   T
  0.6065892132561251  0.1320126610538721  0.2855487307369591   T   T   T
  0.6057929816164435  0.1324604830665566  0.5316614953954322   T   T   T
  0.6065892924484807  0.1320112835643265  0.7855487238564159   T   T   T
  0.1062994140338142  0.1029494728580609  0.1580023058720232   T   T   T
  0.1064349440720696  0.1026798250833856  0.4082926844165587   T   T   T
  0.1062988474714541  0.1029481251182163  0.6580047199116545   T   T   T
  0.1064360674560420  0.1026813146871028  0.9082939259468651   T   T   T
  0.6062998304357232  0.1029512628267344  0.1580021625843730   T   T   T
  0.6064321956435624  0.1026827300491426  0.4082950635617971   T   T   T
  0.6062966228347990  0.1029483993869805  0.6579996320185756   T   T   T
  0.6064363614893438  0.1026815171981317  0.9082941209653509   T   T   T
  0.3565428853562936  0.1230577629272832  0.0309293243347482   T   T   T
  0.3566608052257775  0.1230311173492428  0.2857235883009120   T   T   T
  0.3565472476934463  0.1230552481173801  0.5309283973406543   T   T   T
  0.3566686719978109  0.1230243188040099  0.7857234213724520   T   T   T
  0.8565425874574508  0.1230593856517760  0.0309258895505578   T   T   T
  0.8566636055500833  0.1230257590255168  0.2857259005266061   T   T   T
  0.8565429099774272  0.1230596644317195  0.5309286323837688   T   T   T
  0.8566628588131023  0.1230234877271135  0.7857254892596411   T   T   T
  0.3562969352465174  0.1019547150969802  0.1544086687683002   T   T   T
  0.3564633928747837  0.1021774590600237  0.4082435025925957   T   T   T
  0.3563703440233832  0.1019395263179377  0.6542952898707441   T   T   T
  0.3564692480557973  0.1021480145453787  0.9082496289324220   T   T   T
  0.8563024048410962  0.1019631985083260  0.1544501527305948   T   T   T
  0.8564679442285185  0.1021530119314208  0.4082493606505889   T   T   T
  0.8563716881408178  0.1019729500171175  0.6543907683912537   T   T   T
  0.8564674229855631  0.1021512780461251  0.9082490396464016   T   T   T
  0.1801334635718498  0.1021843241421390  0.0309711210201091   T   T   T
  0.1890228577146033  0.1025686486418550  0.2853666961756763   T   T   T
  0.1801177349583972  0.1021924119432142  0.5309687891668613   T   T   T
  0.1889910139171890  0.1025490308451255  0.7853677257241781   T   T   T
  0.6801351025084615  0.1021839989677002  0.0309711659799435   T   T   T
  0.6890198840053480  0.1025657750533431  0.2853656274180505   T   T   T
  0.6801351229180476  0.1021873655030812  0.5309699906656842   T   T   T
  0.6890354687367739  0.1025728827253879  0.7853648926012459   T   T   T
  0.1902430215531290  0.1323569489852638  0.1544040730895389   T   T   T
  0.1898887470245119  0.1322470426447337  0.4081476747620797   T   T   T
  0.1902493243758104  0.1323554991965456  0.6544066988971732   T   T   T
  0.1898660080420700  0.1323024300922375  0.9081374912091112   T   T   T
  0.6902417573325729  0.1323544643381794  0.1543995520562071   T   T   T
  0.6898655142185330  0.1323035414347738  0.4081385586277870   T   T   T
  0.6902418798114791  0.1323304612862302  0.6543817245787648   T   T   T
  0.6898669195301017  0.1323035367617560  0.9081372868517090   T   T   T
  0.4396315691701409  0.1115222215354008  0.0308415115608817   T   T   T
  0.4400250333708584  0.1114652091234778  0.2853950416078657   T   T   T
  0.4396365723936363  0.1115190190693719  0.5308410499031190   T   T   T
  0.4400265618196351  0.1114621371434990  0.7853983333243580   T   T   T
  0.9396287695511433  0.1115228818720476  0.0308409216610398   T   T   T
  0.9400255423821886  0.1114644545385494  0.2853950662481896   T   T   T
  0.9396285298822279  0.1115235750292261  0.5308395206406986   T   T   T
  0.9400248660565582  0.1114688175926742  0.7853955566937509   T   T   T
  0.4364533677354356  0.1327021433223261  0.1565335112331212   T   T   T
  0.4388640749486892  0.1327339240566543  0.4084157517130844   T   T   T
  0.4364460363106009  0.1327042431594873  0.6565242542036346   T   T   T
  0.4388584290061678  0.1327228873931750  0.9084122832919885   T   T   T
  0.9364685671588596  0.1327027347299758  0.1565173774378099   T   T   T
  0.9388576785641701  0.1327205337752995  0.4084116444505059   T   T   T
  0.9364787698340291  0.1327024635784638  0.6565045490369661   T   T   T
  0.9388579435175786  0.1327232877075319  0.9084120601963485   T   T   T
  0.2265659244612870  0.1027043922786513  0.0921289859006529   T   T   T
  0.2271163253671468  0.1026916364018570  0.3472772429256427   T   T   T
  0.2265655504015690  0.1027093049184282  0.5921222423459154   T   T   T
  0.2271099173429829  0.1026982960528642  0.8472787460307396   T   T   T
  0.7265715905473736  0.1027053469498326  0.0921278270924998   T   T   T
  0.7271116912740826  0.1026986321848928  0.3472802610127445   T   T   T
  0.7265721887182151  0.1027054311169814  0.5921283026767090   T   T   T
  0.7271141390363677  0.1026980685029043  0.8472804315236461   T   T   T
  0.2306335539726283  0.1020431561548052  0.2177898481030169   T   T   T
  0.2270172950926451  0.1017653190178310  0.4692525728725240   T   T   T
  0.2306442749859724  0.1020425892891282  0.7178005298090679   T   T   T
  0.2270269338859749  0.1017741071324879  0.9692549513507738   T   T   T
  0.7306402672190276  0.1020430087974729  0.2177820452725747   T   T   T
  0.7270229482509802  0.1017779933594782  0.4692588907076818   T   T   T
  0.7306465579733777  0.1020405675937842  0.7177808910219923   T   T   T
  0.7270274474476254  0.1017738730689968  0.9692554148397042   T   T   T
  0.4770167279236522  0.1128529716051843  0.0931949534928909   T   T   T
  0.4778208141383951  0.1125781198829372  0.3472237562494643   T   T   T
  0.4770216046959186  0.1128614696037045  0.5931860187079125   T   T   T
  0.4778237105010215  0.1125719600525984  0.8472243987179059   T   T   T
  0.9770274714580000  0.1128676651199976  0.0931779090957315   T   T   T
  0.9778238629916720  0.1125712196250086  0.3472243762142654   T   T   T
  0.9770285318126656  0.1128695816677959  0.5931721682126404   T   T   T
  0.9778220673121414  0.1125721433872721  0.8472240366466447   T   T   T
  0.4803592663004470  0.1021660349432015  0.2178119315353839   T   T   T
  0.4781429636735492  0.1021834346444852  0.4690519056561128   T   T   T
  0.4803537560757072  0.1021671974862176  0.7178093333999467   T   T   T
  0.4781059737234553  0.1021609616209810  0.9690411353909194   T   T   T
  0.9803635697913057  0.1021662109580401  0.2178122157748844   T   T   T
  0.9781047026695887  0.1021607145522338  0.4690412289707906   T   T   T
  0.9803585722899995  0.1021687009103177  0.7178083631598174   T   T   T
  0.9781064419065713  0.1021613225747137  0.9690410892598927   T   T   T
  0.0605161609780300  0.1317027612153827  0.0967830299352323   T   T   T
  0.0603425250917178  0.1318106512303025  0.3471694529216089   T   T   T
  0.0605175824057277  0.1317035334247725  0.5967802252232834   T   T   T
  0.0603429837849601  0.1318077820402953  0.8471732884757640   T   T   T
  0.5605095869485649  0.1316989191342581  0.0967891541406335   T   T   T
  0.5603453219611553  0.1318104659122693  0.3471738496550900   T   T   T
  0.5605174982934813  0.1317074303389889  0.5967826751788563   T   T   T
  0.5603449143067303  0.1318084810170281  0.8471728551143453   T   T   T
  0.0608150640495725  0.1329763593217857  0.2153883048156525   T   T   T
  0.0603704359357335  0.1332018277151167  0.4691666789390150   T   T   T
  0.0608129420969791  0.1329791745259435  0.7153860021444495   T   T   T
  0.0603738626890268  0.1332053503580060  0.9691678552448718   T   T   T
  0.5608153528098422  0.1329791601413330  0.2153851862753934   T   T   T
  0.5603735878501095  0.1332170567963978  0.4691672302812145   T   T   T
  0.5608128861903490  0.1329824171142390  0.7153827475230966   T   T   T
  0.5603748062621581  0.1332049583680083  0.9691680052786399   T   T   T
  0.3101893703392299  0.1217553700365671  0.0922041579412220   T   T   T
  0.3103191224614393  0.1219163553852994  0.3470828836509542   T   T   T
  0.3101772682593961  0.1217492983901119  0.5922003965171307   T   T   T
  0.3103177449760509  0.1219117300790912  0.8470844859382346   T   T   T
  0.8102020188718484  0.1217538740806057  0.0922074333872627   T   T   T
  0.8103190437013336  0.1219115048355364  0.3470848934037389   T   T   T
  0.8101915370711184  0.1217554507099245  0.5922097689480103   T   T   T
  0.8103225190163215  0.1219118799075953  0.8470852833467843   T   T   T
  0.3137953794999317  0.1325798391536655  0.2206881331053488   T   T   T
  0.3102940405747443  0.1324861050361023  0.4693665682001328   T   T   T
  0.3138110375085923  0.1325717507776910  0.7206796454201262   T   T   T
  0.3102914358210988  0.1325011875662429  0.9693627156722834   T   T   T
  0.8138241909283891  0.1325726649215684  0.2206789646467165   T   T   T
  0.8102909421498063  0.1324993684108908  0.4693635326280898   T   T   T
  0.8138591197388187  0.1325779160366846  0.7206524276228939   T   T   T
  0.8102917742761957  0.1325016327598568  0.9693612383401974   T   T   T
  0.4771164481985443  0.4087682997696159  0.5406400125101150   T   T   T
  0.3949703752106293  0.4235097248598583  0.5153872070918241   T   T   T
  0.5358227485703508  0.4185936472386766  0.4796372320309354   T   T   T
  0.3807138177539225  0.4960066225902124  0.4928044862591085   T   T   T
  0.6179998981688944  0.3886326557099352  0.4895031132514117   T   T   T
  0.0148554781408772  0.2211117670986553  0.1967785779589409   T   T   T
  0.0149230689101770  0.2218645455225967  0.4471285379078573   T   T   T
  0.0148433490513802  0.2211262047141859  0.6968061134555384   T   T   T
  0.0149230773666880  0.2218662400974710  0.9471370818578900   T   T   T
  0.5148450466634978  0.2211404245651362  0.1968277166067023   T   T   T
  0.5149253366908547  0.2218762077771369  0.4471495032732986   T   T   T
  0.5148685353867755  0.2211041888237972  0.6967592342193543   T   T   T
  0.5149242219650115  0.2218676636266531  0.9471419336901458   T   T   T
  0.1576287604407579  0.2216444507455941  0.1256730979175897   T   T   T
  0.1569138521955052  0.2219631066838232  0.3802429446052329   T   T   T
  0.1576211797332336  0.2216223256535222  0.6256746240480682   T   T   T
  0.1563016358611442  0.2240083716624175  0.8785842302958407   T   T   T
  0.6576271123991234  0.2216482298310666  0.1256753974681479   T   T   T
  0.6562958056878403  0.2239996955987577  0.3785933923038211   T   T   T
  0.6576894448985899  0.2218530719745297  0.6256906852496490   T   T   T
  0.6563054322880387  0.2239985428532507  0.8785813398906200   T   T   T
  0.4315057434293045  0.0177864109269920  0.1965883298057303   T   T   T
  0.4315858531697149  0.0173737917474421  0.4441569984403918   T   T   T
  0.4315051305563931  0.0177878213375397  0.6966102243793518   T   T   T
  0.4313887085551732  0.0146926633559915  0.9463116118020605   T   T   T
  0.9315053773764710  0.0177855606357530  0.1965848916189004   T   T   T
  0.9312801617772726  0.0147447705667974  0.4462428776553002   T   T   T
  0.9315058877509635  0.0177855892437851  0.6965655011999224   T   T   T
  0.9313530873925489  0.0147651085995626  0.9462627494194459   T   T   T
  0.1812960271645711  0.0180840221346557  0.1870965435251719   T   T   T
  0.1813767710308657  0.0178713331775501  0.4373089947699239   T   T   T
  0.1812893854996445  0.0180899262875639  0.6871034856347809   T   T   T
  0.1813704676484157  0.0178826589149355  0.9373300621767136   T   T   T
  0.6812940843996685  0.0180852469983502  0.1870987255215953   T   T   T
  0.6813711811032239  0.0178818273480742  0.4373270138645007   T   T   T
  0.6812949203280066  0.0180854909301336  0.6871000780377990   T   T   T
  0.6813722999516924  0.0178821077528347  0.9373280839779686   T   T   T
  0.2731538023020872  0.2219225987617704  0.1948058217723646   T   T   T
  0.2671448308954966  0.2216315712594395  0.4465122336321151   T   T   T
  0.2721836908527571  0.2218824901070416  0.6960527446805483   T   T   T
  0.2671157886805083  0.2216515085596333  0.9465331038527669   T   T   T
  0.7719323684391097  0.2218015506246780  0.1959591693656272   T   T   T
  0.7670894945671316  0.2216562121140862  0.4465555539266902   T   T   T
  0.7683660861479625  0.2216969803173426  0.6965508985891836   T   T   T
  0.7671187344154946  0.2216503845280881  0.9465299745560752   T   T   T
  0.0510337998727239  0.0179909577496713  0.1787659738324770   T   T   T
  0.0509394184065828  0.0203486210274729  0.4293944254899829   T   T   T
  0.0510346156540714  0.0179936564088757  0.6787807608612215   T   T   T
  0.0509405622546288  0.0203485873355474  0.9293940907928990   T   T   T
  0.5510339750483779  0.0179910943921163  0.1787660664990666   T   T   T
  0.5509378506789836  0.0203574719020205  0.4293920273282847   T   T   T
  0.5510365533213416  0.0179912989375579  0.6787636935430511   T   T   T
  0.5509422515808879  0.0203481302877012  0.9293939817065401   T   T   T
  0.3006401166793713  0.0178695506655269  0.1761619933706417   T   T   T
  0.3006687129734844  0.0177960507305756  0.4262569312220110   T   T   T
  0.3006408561989354  0.0178674515947720  0.6761618166693881   T   T   T
  0.3006672957391601  0.0178024375019645  0.9262446983010174   T   T   T
  0.8006389297896904  0.0178738840153650  0.1761631313796694   T   T   T
  0.8006663971400700  0.0178023052371323  0.4262453968567032   T   T   T
  0.8006413056485597  0.0178665472956881  0.6761633324771783   T   T   T
  0.8006676034296754  0.0178024415103563  0.9262446128846206   T   T   T
  0.3941245784792666  0.2230245397181990  0.1836326015613930   T   T   T
  0.3930241295656363  0.2224229057037167  0.4286496773421007   T   T   T
  0.3942156182185428  0.2230203857413590  0.6836733201250987   T   T   T
  0.3929619777992178  0.2223777327662587  0.9286912944736142   T   T   T
  0.8941953436237703  0.2230181404367814  0.1836603313312431   T   T   T
  0.8929488084766846  0.2223669745934081  0.4287015410452809   T   T   T
  0.8936593993460866  0.2219238538593326  0.6837184179117221   T   T   T
  0.8929628932578344  0.2223792698781007  0.9286885033045782   T   T   T
  0.4879207907967950  0.3591908479563912  0.5613210194956082   T   T   T
  0.4958171960292722  0.4457294782792826  0.5796353628958626   T   T   T
  0.3584982952265630  0.4187827567866074  0.5603133662807118   T   T   T
  0.5129218352234788  0.3977870956559765  0.4314059553299382   T   T   T
  0.5442355542156466  0.4718205311436611  0.4638930608036463   T   T   T
  0.3231295949063418  0.3995556234778558  0.4400914965128143   T   T   T
  0.3482627711359940  0.3385257787504929  0.4876916480503171   T   T   T
  0.3993052088311289  0.5858132514730287  0.5156343727779393   T   T   T
  0.7123746437832464  0.3904956477991156  0.4469022829813131   T   T   T
  0.3694646770350557  0.3775123952997309  0.4607640457931546   T   T   T
  0.3333407004406511  0.1836525488612482  0.0714578954766159   T   T   T
  0.3333126846026545  0.1844823054492521  0.3215662060755000   T   T   T
  0.3333408826341431  0.1836549583575906  0.5714572632806062   T   T   T
  0.3333127494420938  0.1844823081991683  0.8215654934311853   T   T   T
  0.8333187027951721  0.1836523003552049  0.0714574103346169   T   T   T
  0.8333129823883222  0.1844822741845539  0.3215665769862208   T   T   T
  0.8333319723007319  0.1836507100944174  0.5714576347577786   T   T   T
  0.8333128248955153  0.1844817962713544  0.8215671202168573   T   T   T
  0.0834044337412724  0.1938017583403060  0.0714516970409478   T   T   T
  0.0835886802093655  0.1931462664786465  0.3214706427135291   T   T   T
  0.0834050182346764  0.1938018146562888  0.5714518216842024   T   T   T
  0.0835940086414337  0.1931470404720757  0.8214725699307438   T   T   T
  0.5834045274194340  0.1938013615849174  0.0714518082913771   T   T   T
  0.5835932091742104  0.1931467355630056  0.3214724994659813   T   T   T
  0.5834050115401752  0.1937976280375845  0.5714524337302320   T   T   T
  0.5835926628646666  0.1931467935813080  0.8214727611961837   T   T   T
  0.2023507210166422  0.0408816424683020  0.0714061390850771   T   T   T
  0.2024330309868660  0.0415724329951107  0.3214368434951269   T   T   T
  0.2023512585167767  0.0408737491480610  0.5714062075171458   T   T   T
  0.2024331625136508  0.0415716506532602  0.8214351353101201   T   T   T
  0.7023505742050496  0.0408817075380867  0.0714062140924964   T   T   T
  0.7024334049440663  0.0415709748231645  0.3214350730728728   T   T   T
  0.7023520361539749  0.0408802305972672  0.5714057361096347   T   T   T
  0.7024324995551001  0.0415714793491164  0.8214364566481158   T   T   T
  0.4642392781459400  0.0509076046987303  0.0714341781047207   T   T   T
  0.4642171738779091  0.0501823597040337  0.3215284214354221   T   T   T
  0.4642379492135201  0.0509251265649270  0.5714343428981533   T   T   T
  0.4642174845730287  0.0501827493941564  0.8215263693293777   T   T   T
  0.9642388880505611  0.0509254434964989  0.0714337365547637   T   T   T
  0.9642167274379296  0.0501822520423111  0.3215308707479252   T   T   T
  0.9642399578364775  0.0509021024218784  0.5714343861339298   T   T   T
  0.9642176486914557  0.0501825682490466  0.8215279579669247   T   T   T
  0.0712699195732568  0.2040838992442356  0.2040834026975675   T   T   T
  0.0705334476716887  0.2042801238749360  0.4540958720669155   T   T   T
  0.0712706925775342  0.2040846135753124  0.7040833239728490   T   T   T
  0.0705315683901428  0.2042776796650876  0.9540964315401895   T   T   T
  0.5712699192513763  0.2040840151639714  0.2040836021702363   T   T   T
  0.5705294410991171  0.2042699209091176  0.4540957876305841   T   T   T
  0.5712694838397071  0.2040838076876510  0.7040838120445266   T   T   T
  0.5705315458602652  0.2042773235622801  0.9540965262055034   T   T   T
  0.2022815663680609  0.2040038478487723  0.1530360944966312   T   T   T
  0.2016484696438147  0.2036236224148980  0.4031403585538042   T   T   T
  0.2022826872304812  0.2040058988310210  0.6530364759908300   T   T   T
  0.2014854340189168  0.2040390155054202  0.9031020877383567   T   T   T
  0.7022818838784197  0.2040042366138142  0.1530364897727041   T   T   T
  0.7014865295090144  0.2040433716534167  0.4031019743662080   T   T   T
  0.7022820846939488  0.2040009215095819  0.6530385741457286   T   T   T
  0.7014891173548548  0.2040373496580334  0.9031015130004686   T   T   T
  0.4880055015344013  0.0306132903188203  0.2142190423254675   T   T   T
  0.4879811057706794  0.0306452883390990  0.4591932351211768   T   T   T
  0.4880048349738134  0.0306133746351607  0.7142189711857726   T   T   T
  0.4879762545604715  0.0306270742859793  0.9591960806822020   T   T   T
  0.9880056726652996  0.0306134677788866  0.2142190237745037   T   T   T
  0.9879763832809840  0.0306271186259949  0.4591953657228274   T   T   T
  0.9880064258176636  0.0306127374667086  0.7142188772784882   T   T   T
  0.9879771083108695  0.0306272829349304  0.9591961509327681   T   T   T
  0.2379928191470427  0.0306490775277042  0.2041160346238296   T   T   T
  0.2371964310588169  0.0305895531982241  0.4542179874290662   T   T   T
  0.2379930316342622  0.0306487615884254  0.7041160165259343   T   T   T
  0.2371974639201247  0.0305914430310024  0.9542182889445809   T   T   T
  0.7379926579930085  0.0306490150721290  0.2041158940162403   T   T   T
  0.7371969673828648  0.0305913763686678  0.4542181954823173   T   T   T
  0.7379919644409827  0.0306484405859540  0.7041160395667502   T   T   T
  0.7371962785770003  0.0305911462835198  0.9542179031641463   T   T   T
  0.3213368257204856  0.2040837890783388  0.2142743162949095   T   T   T
  0.3205028664596796  0.2043310713681935  0.4642022197528767   T   T   T
  0.3213286345106823  0.2040856175821942  0.7142736509582867   T   T   T
  0.3205011336015025  0.2043204536652243  0.9642006979389989   T   T   T
  0.8213256297163836  0.2040880423897023  0.2142736490143488   T   T   T
  0.8205031461352535  0.2043248336588518  0.4641998294424820   T   T   T
  0.8212658470365947  0.2041131844265434  0.7142553371608127   T   T   T
  0.8205013040302022  0.2043204045303804  0.9642011351798470   T   T   T
  0.1071625159615408  0.0313786271676148  0.1582368391509765   T   T   T
  0.1071522547027578  0.0306979341723153  0.4081994622263213   T   T   T
  0.1071852756278861  0.0313875263663971  0.6582457384822991   T   T   T
  0.1071514594539419  0.0306974685337322  0.9081994856610622   T   T   T
  0.6071623269187794  0.0313782781954982  0.1582366956498394   T   T   T
  0.6071521794173586  0.0306959863704874  0.4081989737900416   T   T   T
  0.6071727504775922  0.0313949729758652  0.6582335183731763   T   T   T
  0.6071510654468903  0.0306971888629595  0.9081996060446261   T   T   T
  0.3580852104788383  0.0305269136999369  0.1582103587307324   T   T   T
  0.3572159879659492  0.0306214493478456  0.4082102805049400   T   T   T
  0.3580847724938637  0.0305392006815369  0.6582019788541930   T   T   T
  0.3572139624363760  0.0306138177070140  0.9082117717703972   T   T   T
  0.8580837605842188  0.0305282957981596  0.1582073598092260   T   T   T
  0.8572146591279437  0.0306138653497267  0.4082119641166476   T   T   T
  0.8580861164347496  0.0305229127605595  0.6582096800994789   T   T   T
  0.8572142013256147  0.0306134971559527  0.9082120499183511   T   T   T
  0.4405765741173731  0.2048798637480739  0.1582259250157266   T   T   T
  0.4405379638707940  0.2040721661886041  0.4081865200153711   T   T   T
  0.4405600497591847  0.2048795197859166  0.6582300104607739   T   T   T
  0.4405385648840047  0.2040748267648148  0.9081863940443782   T   T   T
  0.9405661558985782  0.2048795427780860  0.1582301991904348   T   T   T
  0.9405391729597661  0.2040759783400905  0.4081868898997745   T   T   T
  0.9405704976063071  0.2048766941861779  0.6582274971232706   T   T   T
  0.9405390203475184  0.2040747846820414  0.9081866816396641   T   T   T
  0.4166767144274946  0.5409132339726185  0.5306365295847988   T   T   T
  0.6666734001714970  0.4181474609749798  0.4388855184702372   T   T   T
  0.3333822768472511  0.5102044907107038  0.4490134637418663   T   T   T
  0.6310281110503213  0.3469105482956076  0.5306755488685735   T   T   T
 
  


