C H N O                                 
   1.00000000000000     
    20.0000000000000000    0.0000000000000000    0.0000000000000000
     0.0000000000000000   21.3509999999999991    0.0000000000000000
     0.0000000000000000    0.0000000000000000   20.0000000000000000
   C    H    N    O 
   165     9     1     4
Selective dynamics
Direct
  0.0405270869280896  0.0179046498672511  0.0298398272487995   T   T   T
  0.0404412961283014  0.0179409734336838  0.1531165421695960   T   T   T
  0.0404451696470202  0.0179161324631013  0.2756895586553538   T   T   T
  0.0404472584828726  0.0179152030613902  0.3981622899636648   T   T   T
  0.0404539580574796  0.0179359145713599  0.5206757783313146   T   T   T
  0.0405953217986684  0.0179499997997133  0.6439482253066380   T   T   T
  0.0404677307081057  0.0178587998270530  0.7753084390296510   T   T   T
  0.0404627417101503  0.0179388721805792  0.8984108837339370   T   T   T
  0.0405097601166516  0.0839788006627348  0.0298189105313114   T   T   T
  0.0404317825362570  0.0839434556737187  0.1530924742949567   T   T   T
  0.0404472043992051  0.0838830319305732  0.2756852514141754   T   T   T
  0.0404484408159222  0.0838848985788032  0.3981559246905780   T   T   T
  0.0404609834803772  0.0838647268516852  0.5206707832622824   T   T   T
  0.0406318630845723  0.0839606052965981  0.6439039324538346   T   T   T
  0.0404663213644987  0.0838618193267706  0.7752183477665707   T   T   T
  0.0404681958714441  0.0839545328652853  0.8984159005009286   T   T   T
  0.0404272512681913  0.1195903119589375  0.0914641148956760   T   T   T
  0.0404140977795827  0.1189813134496756  0.2144270238701878   T   T   T
  0.0404148342362729  0.1189789613011248  0.3368649118629157   T   T   T
  0.0404246079691300  0.1189789114221994  0.4593618747638363   T   T   T
  0.0405620361170802  0.1190140146441325  0.5820705207465628   T   T   T
  0.0403048015657024  0.1189481521636742  0.7133937691810701   T   T   T
  0.0403998675711972  0.1189722974915279  0.8368497315406296   T   T   T
  0.0406507399591343  0.1196042743096453  0.9604338173238470   T   T   T
  0.0404490372181130  0.1852306620192591  0.0912488039188839   T   T   T
  0.0404288435690036  0.1845415189833654  0.2145390958302658   T   T   T
  0.0404321462117413  0.1845580905690276  0.3369007212935499   T   T   T
  0.0404489608782307  0.1845526383036154  0.4594485554650850   T   T   T
  0.0404655664410394  0.1846434384874360  0.5821681558365221   T   T   T
  0.0407108752822055  0.1845110449045892  0.7131525872079933   T   T   T
  0.0404490740942682  0.1845166774996741  0.8370396416430445   T   T   T
  0.0407105810293288  0.1852003792029830  0.9608966576661071   T   T   T
  0.0409932642379058  0.2208542814502088  0.0298041022655958   T   T   T
  0.0404502685030960  0.2137642984862591  0.1531868120146996   T   T   T
  0.0403841456547967  0.2142770841741121  0.2756745156406278   T   T   T
  0.0404351838832190  0.2137898977905788  0.3981786033052145   T   T   T
  0.0404639108864898  0.2142277731683321  0.5207115485520142   T   T   T
  0.0407313244633231  0.2135913341732359  0.6444747211561770   T   T   T
  0.0404419787920565  0.2137147365565887  0.7753346438765398   T   T   T
  0.0404791720546599  0.2137586276828331  0.8984684628530035   T   T   T
  0.0406303969290661  0.2866118263070394  0.0295182236002016   T   T   T
  0.0404291316265722  0.2792797009553823  0.1530945412416219   T   T   T
  0.0405083487697356  0.2793750008058086  0.2756238066919655   T   T   T
  0.0404813366593901  0.2793140970442402  0.3981070954472796   T   T   T
  0.0405572356747170  0.2793369403992730  0.5206836055643043   T   T   T
  0.0407150299893518  0.2807177714938622  0.6464441242426437   T   T   T
  0.0404900459648481  0.2792948084884900  0.7754715808640419   T   T   T
  0.0405956336435575  0.2792772181921033  0.8983648818398240   T   T   T
  0.0403820462290937  0.3149936848397989  0.0921021820596807   T   T   T
  0.0404497258448836  0.3143923760254697  0.2144048518968464   T   T   T
  0.0404574527616646  0.3143792494017438  0.3369243748785565   T   T   T
  0.0404564647047212  0.3143851558997807  0.4594009175325439   T   T   T
  0.0404635024125399  0.3144174718823580  0.5822858204167610   T   T   T
  0.0404665742061607  0.3143953216220665  0.7136574971892339   T   T   T
  0.0404546268134603  0.3144012253562268  0.8369648050955840   T   T   T
  0.0404739916272265  0.3148237387446416  0.9600042437557129   T   T   T
  0.0403320609420079  0.3809752430044458  0.0918565390916536   T   T   T
  0.0404493287130797  0.3803706115299640  0.2144622466835102   T   T   T
  0.0404488810229369  0.3803460273744838  0.3369209881584653   T   T   T
  0.0404476993122554  0.3803344933895200  0.4593968769453995   T   T   T
  0.0404482075595662  0.3804380509335248  0.5821434889707529   T   T   T
  0.0405353015595650  0.3803910462104289  0.7135104722992893   T   T   T
  0.0404513976353007  0.3803501335634339  0.8369481805557316   T   T   T
  0.0406306731646227  0.3806396106916737  0.9600616798566293   T   T   T
  0.0405096970513983  0.4161230349910872  0.0298316766654813   T   T   T
  0.0404422054244542  0.4161761692865152  0.1531932340052818   T   T   T
  0.0404523729441936  0.4161053352475034  0.2757013519154702   T   T   T
  0.0404568097452134  0.4161129557956565  0.3981658243971676   T   T   T
  0.0404637252185689  0.4161235531387155  0.5206864919275678   T   T   T
  0.0406818238597369  0.4161409721217264  0.6446268058926340   T   T   T
  0.0404495633169430  0.4161232126473910  0.7753771919299779   T   T   T
  0.0404703663315514  0.4161461306752793  0.8983864470971213   T   T   T
  0.0405358229571275  0.4822163598181264  0.0298245096372512   T   T   T
  0.0404458772025610  0.4821889352558993  0.1531604862789037   T   T   T
  0.0404366116046201  0.4821799019901293  0.2757068108171470   T   T   T
  0.0404388631131224  0.4821552228497387  0.3981915014960261   T   T   T
  0.0404840662982849  0.4821496950565978  0.5210888640857475   T   T   T
  0.0405917009516825  0.4821318115814846  0.6519463600335753   T   T   T
  0.0404549429946210  0.4821560357170351  0.7756219096358474   T   T   T
  0.0404753848114407  0.4821889525337609  0.8984094671098772   T   T   T
  0.0404521025208181  0.5178995559614107  0.0916563560598375   T   T   T
  0.0404467111068906  0.5179272100846884  0.2144713447869200   T   T   T
  0.0404276197363301  0.5179125108906959  0.3369281205924888   T   T   T
  0.0404477966270832  0.5179439476508343  0.4595263902825324   T   T   T
  0.0406208758350033  0.5166666666659978  0.5855325419810029   F   F   F
  0.0404502112975605  0.5178839280399167  0.7141926466091242   T   T   T
  0.0404544487707009  0.5179561561146913  0.8369775222759562   T   T   T
  0.0406165304608645  0.5178868075689395  0.9602555209613192   T   T   T
  0.0404709184578187  0.5839293832365404  0.0916272712543005   T   T   T
  0.0404473130174709  0.5838805853494001  0.2144488801703041   T   T   T
  0.0404444710018859  0.5838773854331224  0.3369313293079290   T   T   T
  0.0404495624507701  0.5838723897336718  0.4594411500616888   T   T   T
  0.0404646322937733  0.5836446751407028  0.5824649896737691   T   T   T
  0.0404759988775848  0.5838502544928684  0.7137776348954025   T   T   T
  0.0404626540450965  0.5839418166810606  0.8369518464505895   T   T   T
  0.0406294793238237  0.5839432938008181  0.9603484827673634   T   T   T
  0.0406810648974850  0.6191701550080073  0.0298272342219621   T   T   T
  0.0403813717931565  0.6190306001871279  0.1530949615619019   T   T   T
  0.0404248954140196  0.6189826200389731  0.2756471705810161   T   T   T
  0.0404188509308383  0.6190012215324482  0.3981044046582279   T   T   T
  0.0405435548875342  0.6189281597855413  0.5207581064616461   T   T   T
  0.0407218981814009  0.6167642292294182  0.6480750565155294   T   T   T
  0.0404199666508161  0.6195177259545119  0.7753447541386215   T   T   T
  0.0405266623064746  0.6194611593265545  0.8985467617810051   T   T   T
  0.0404081047534477  0.6850252425040330  0.0299092644795897   T   T   T
  0.0404429883580475  0.6847146848584499  0.1529798809907874   T   T   T
  0.0404381502369809  0.6845981081582441  0.2756717542646838   T   T   T
  0.0404442247881772  0.6845393069366591  0.3981650591616577   T   T   T
  0.0404478070582087  0.6844860605609142  0.5207599792059228   T   T   T
  0.0406787859502296  0.6825175875147494  0.6465112003873946   T   T   T
  0.0404564383260633  0.6848834793576771  0.7749962834639000   T   T   T
  0.0404177569604092  0.6849709680557973  0.8988539686841159   T   T   T
  0.0406064276998152  0.7148488857698274  0.0917816156091110   T   T   T
  0.0404103798782095  0.7143470909169872  0.2144278867556465   T   T   T
  0.0403675706054639  0.7142190512242971  0.3369254046507205   T   T   T
  0.0404432600785162  0.7138054800275994  0.4594137477275745   T   T   T
  0.0404791176168031  0.7134744879817950  0.5824092738807071   T   T   T
  0.0407190111141217  0.7157767121482113  0.7109108001199154   T   T   T
  0.0404435303752224  0.7138353872324279  0.8369899801559960   T   T   T
  0.0400988543314440  0.7175677533631286  0.9637196272186329   T   T   T
  0.0405702867200511  0.7852755405792222  0.0917904173284569   T   T   T
  0.0404987812312659  0.7793429323176059  0.2144176816483465   T   T   T
  0.0405005320384144  0.7793550200100675  0.3368759454485561   T   T   T
  0.0404944000348005  0.7793115815339280  0.4593457488388255   T   T   T
  0.0405889139345712  0.7791821914076147  0.5820708240165151   T   T   T
  0.0407165663464131  0.7815264782006818  0.7093808540324297   T   T   T
  0.0404916223677797  0.7793086528827010  0.8368930967873511   T   T   T
  0.0407001681624370  0.7835306939791221  0.9643808289718403   T   T   T
  0.0404406671783769  0.8151712742284188  0.0299583802168069   T   T   T
  0.0404655296615975  0.8148808466654789  0.1534314081474094   T   T   T
  0.0404481206438524  0.8143780705213305  0.2756645538671724   T   T   T
  0.0404507219064062  0.8143839653027852  0.3981458504121919   T   T   T
  0.0404596128965573  0.8143625801563397  0.5206534536486499   T   T   T
  0.0404744484233324  0.8144179666352976  0.6436056068887137   T   T   T
  0.0404726146164047  0.8145177282945225  0.7750534654980106   T   T   T
  0.0404087208088959  0.8145462087098877  0.8985566435087400   T   T   T
  0.0406866506170713  0.8810376665379321  0.0298931858119194   T   T   T
  0.0403947546617824  0.8809102962558232  0.1532568967281066   T   T   T
  0.0404458984245835  0.8803459609314067  0.2756955152140759   T   T   T
  0.0404444467295932  0.8803405859465999  0.3981645033706328   T   T   T
  0.0404465088004362  0.8803361594682024  0.5206349445562319   T   T   T
  0.0405086255356426  0.8804986673307412  0.6433710631165453   T   T   T
  0.0405017987401995  0.8804347027328454  0.7747974623817228   T   T   T
  0.0404826596925030  0.8803663437472093  0.8983112162319964   T   T   T
  0.0404605113696613  0.9161537809094440  0.0916420859251650   T   T   T
  0.0404449883885934  0.9161590792690655  0.2144784341315972   T   T   T
  0.0404492913727807  0.9161060240605625  0.3369238195156306   T   T   T
  0.0404527984695248  0.9161073742709203  0.4593915183893432   T   T   T
  0.0404573851284998  0.9161253645715622  0.5819105743201674   T   T   T
  0.0406869264133250  0.9161795329454577  0.7058628766667988   T   T   T
  0.0404487019090133  0.9161385318071352  0.8366492635203281   T   T   T
  0.0406450073072898  0.9161188766260729  0.9603526986066213   T   T   T
  0.0404490457214727  0.9822017464680549  0.0916619731075287   T   T   T
  0.0404468177384151  0.9821844320685807  0.2144839501791843   T   T   T
  0.0404407968668109  0.9821534811296376  0.3369264436493685   T   T   T
  0.0404488944055987  0.9821611838403322  0.4593990854842646   T   T   T
  0.0404671064710111  0.9821739070861858  0.5820855400652644   T   T   T
  0.0406644003267405  0.9821354789778951  0.7129489573842815   T   T   T
  0.0404495444882764  0.9821727917944166  0.8369036611600847   T   T   T
  0.0406272219771951  0.9822185036381107  0.9602383306695785   T   T   T
  0.2758096077891358  0.5282444919165538  0.4902667059996890   T   T   T
  0.2555438967262719  0.5463579979886952  0.4187184231467023   T   T   T
  0.2203755251856146  0.5021466067197000  0.5305330469973853   T   T   T
  0.2353774209197061  0.4900858267587692  0.3777965301548642   T   T   T
  0.2345091116926409  0.5076236774897360  0.6023645535584702   T   T   T
  0.2837427018172951  0.5724099715782102  0.5177146689472990   T   T   T
  0.3227904281607704  0.5013843634532009  0.4932599756433568   T   T   T
  0.3031492843278929  0.5641041877055597  0.3975018752455143   T   T   T
  0.1750120884819305  0.5278327071152569  0.5212691707517609   T   T   T
  0.2061947571787634  0.4549632406617864  0.5143013202878112   T   T   T
  0.1759617772660466  0.5891836310363886  0.3753751958833998   T   T   T
  0.2219611808354465  0.6374490711817528  0.4174774208304485   T   T   T
  0.2574458508883462  0.4023078804883217  0.3601446821120289   T   T   T
  0.2013808753403910  0.4702359991775475  0.6811534051863293   T   T   T
  0.2037972722105535  0.5931642483100867  0.4181042855439592   T   T   T
  0.2754340760401874  0.4358009268922164  0.3878598298928350   T   T   T
  0.1938897657727550  0.4634966637095377  0.6328613857052305   T   T   T
  0.1930769709457920  0.4868831722824903  0.3360281127597077   T   T   T
  0.2755054463226106  0.5375515617271771  0.6326841420082795   T   T   T
 
  


